** cantilever 1.0x0.1x0.1
*NODE, NSET=NALL
1, 0, 0, 0
2, 0, 0, 0.025
3, 0, 0, 0.05
4, 0, 0, 0.075
5, 0, 0, 0.1
6, 0, 0.025, 0
7, 0, 0.025, 0.05
8, 0, 0.025, 0.1
9, 0, 0.05, 0
10, 0, 0.05, 0.025
11, 0, 0.05, 0.05
12, 0, 0.05, 0.075
13, 0, 0.05, 0.1
14, 0, 0.075, 0
15, 0, 0.075, 0.05
16, 0, 0.075, 0.1
17, 0, 0.1, 0
18, 0, 0.1, 0.025
19, 0, 0.1, 0.05
20, 0, 0.1, 0.075
21, 0, 0.1, 0.1
22, 0.025, 0, 0
23, 0.025, 0, 0.05
24, 0.025, 0, 0.1
25, 0.025, 0.05, 0
26, 0.025, 0.05, 0.05
27, 0.025, 0.05, 0.1
28, 0.025, 0.1, 0
29, 0.025, 0.1, 0.05
30, 0.025, 0.1, 0.1
31, 0.05, 0, 0
32, 0.05, 0, 0.025
33, 0.05, 0, 0.05
34, 0.05, 0, 0.075
35, 0.05, 0, 0.1
36, 0.05, 0.025, 0
37, 0.05, 0.025, 0.05
38, 0.05, 0.025, 0.1
39, 0.05, 0.05, 0
40, 0.05, 0.05, 0.025
41, 0.05, 0.05, 0.05
42, 0.05, 0.05, 0.075
43, 0.05, 0.05, 0.1
44, 0.05, 0.075, 0
45, 0.05, 0.075, 0.05
46, 0.05, 0.075, 0.1
47, 0.05, 0.1, 0
48, 0.05, 0.1, 0.025
49, 0.05, 0.1, 0.05
50, 0.05, 0.1, 0.075
51, 0.05, 0.1, 0.1
52, 0.075, 0, 0
53, 0.075, 0, 0.05
54, 0.075, 0, 0.1
55, 0.075, 0.05, 0
56, 0.075, 0.05, 0.05
57, 0.075, 0.05, 0.1
58, 0.075, 0.1, 0
59, 0.075, 0.1, 0.05
60, 0.075, 0.1, 0.1
61, 0.1, 0, 0
62, 0.1, 0, 0.025
63, 0.1, 0, 0.05
64, 0.1, 0, 0.075
65, 0.1, 0, 0.1
66, 0.1, 0.025, 0
67, 0.1, 0.025, 0.05
68, 0.1, 0.025, 0.1
69, 0.1, 0.05, 0
70, 0.1, 0.05, 0.025
71, 0.1, 0.05, 0.05
72, 0.1, 0.05, 0.075
73, 0.1, 0.05, 0.1
74, 0.1, 0.075, 0
75, 0.1, 0.075, 0.05
76, 0.1, 0.075, 0.1
77, 0.1, 0.1, 0
78, 0.1, 0.1, 0.025
79, 0.1, 0.1, 0.05
80, 0.1, 0.1, 0.075
81, 0.1, 0.1, 0.1
82, 0.125, 0, 0
83, 0.125, 0, 0.05
84, 0.125, 0, 0.1
85, 0.125, 0.05, 0
86, 0.125, 0.05, 0.05
87, 0.125, 0.05, 0.1
88, 0.125, 0.1, 0
89, 0.125, 0.1, 0.05
90, 0.125, 0.1, 0.1
91, 0.15, 0, 0
92, 0.15, 0, 0.025
93, 0.15, 0, 0.05
94, 0.15, 0, 0.075
95, 0.15, 0, 0.1
96, 0.15, 0.025, 0
97, 0.15, 0.025, 0.05
98, 0.15, 0.025, 0.1
99, 0.15, 0.05, 0
100, 0.15, 0.05, 0.025
101, 0.15, 0.05, 0.05
102, 0.15, 0.05, 0.075
103, 0.15, 0.05, 0.1
104, 0.15, 0.075, 0
105, 0.15, 0.075, 0.05
106, 0.15, 0.075, 0.1
107, 0.15, 0.1, 0
108, 0.15, 0.1, 0.025
109, 0.15, 0.1, 0.05
110, 0.15, 0.1, 0.075
111, 0.15, 0.1, 0.1
112, 0.175, 0, 0
113, 0.175, 0, 0.05
114, 0.175, 0, 0.1
115, 0.175, 0.05, 0
116, 0.175, 0.05, 0.05
117, 0.175, 0.05, 0.1
118, 0.175, 0.1, 0
119, 0.175, 0.1, 0.05
120, 0.175, 0.1, 0.1
121, 0.2, 0, 0
122, 0.2, 0, 0.025
123, 0.2, 0, 0.05
124, 0.2, 0, 0.075
125, 0.2, 0, 0.1
126, 0.2, 0.025, 0
127, 0.2, 0.025, 0.05
128, 0.2, 0.025, 0.1
129, 0.2, 0.05, 0
130, 0.2, 0.05, 0.025
131, 0.2, 0.05, 0.05
132, 0.2, 0.05, 0.075
133, 0.2, 0.05, 0.1
134, 0.2, 0.075, 0
135, 0.2, 0.075, 0.05
136, 0.2, 0.075, 0.1
137, 0.2, 0.1, 0
138, 0.2, 0.1, 0.025
139, 0.2, 0.1, 0.05
140, 0.2, 0.1, 0.075
141, 0.2, 0.1, 0.1
142, 0.225, 0, 0
143, 0.225, 0, 0.05
144, 0.225, 0, 0.1
145, 0.225, 0.05, 0
146, 0.225, 0.05, 0.05
147, 0.225, 0.05, 0.1
148, 0.225, 0.1, 0
149, 0.225, 0.1, 0.05
150, 0.225, 0.1, 0.1
151, 0.25, 0, 0
152, 0.25, 0, 0.025
153, 0.25, 0, 0.05
154, 0.25, 0, 0.075
155, 0.25, 0, 0.1
156, 0.25, 0.025, 0
157, 0.25, 0.025, 0.05
158, 0.25, 0.025, 0.1
159, 0.25, 0.05, 0
160, 0.25, 0.05, 0.025
161, 0.25, 0.05, 0.05
162, 0.25, 0.05, 0.075
163, 0.25, 0.05, 0.1
164, 0.25, 0.075, 0
165, 0.25, 0.075, 0.05
166, 0.25, 0.075, 0.1
167, 0.25, 0.1, 0
168, 0.25, 0.1, 0.025
169, 0.25, 0.1, 0.05
170, 0.25, 0.1, 0.075
171, 0.25, 0.1, 0.1
172, 0.275, 0, 0
173, 0.275, 0, 0.05
174, 0.275, 0, 0.1
175, 0.275, 0.05, 0
176, 0.275, 0.05, 0.05
177, 0.275, 0.05, 0.1
178, 0.275, 0.1, 0
179, 0.275, 0.1, 0.05
180, 0.275, 0.1, 0.1
181, 0.3, 0, 0
182, 0.3, 0, 0.025
183, 0.3, 0, 0.05
184, 0.3, 0, 0.075
185, 0.3, 0, 0.1
186, 0.3, 0.025, 0
187, 0.3, 0.025, 0.05
188, 0.3, 0.025, 0.1
189, 0.3, 0.05, 0
190, 0.3, 0.05, 0.025
191, 0.3, 0.05, 0.05
192, 0.3, 0.05, 0.075
193, 0.3, 0.05, 0.1
194, 0.3, 0.075, 0
195, 0.3, 0.075, 0.05
196, 0.3, 0.075, 0.1
197, 0.3, 0.1, 0
198, 0.3, 0.1, 0.025
199, 0.3, 0.1, 0.05
200, 0.3, 0.1, 0.075
201, 0.3, 0.1, 0.1
202, 0.325, 0, 0
203, 0.325, 0, 0.05
204, 0.325, 0, 0.1
205, 0.325, 0.05, 0
206, 0.325, 0.05, 0.05
207, 0.325, 0.05, 0.1
208, 0.325, 0.1, 0
209, 0.325, 0.1, 0.05
210, 0.325, 0.1, 0.1
211, 0.35, 0, 0
212, 0.35, 0, 0.025
213, 0.35, 0, 0.05
214, 0.35, 0, 0.075
215, 0.35, 0, 0.1
216, 0.35, 0.025, 0
217, 0.35, 0.025, 0.05
218, 0.35, 0.025, 0.1
219, 0.35, 0.05, 0
220, 0.35, 0.05, 0.025
221, 0.35, 0.05, 0.05
222, 0.35, 0.05, 0.075
223, 0.35, 0.05, 0.1
224, 0.35, 0.075, 0
225, 0.35, 0.075, 0.05
226, 0.35, 0.075, 0.1
227, 0.35, 0.1, 0
228, 0.35, 0.1, 0.025
229, 0.35, 0.1, 0.05
230, 0.35, 0.1, 0.075
231, 0.35, 0.1, 0.1
232, 0.375, 0, 0
233, 0.375, 0, 0.05
234, 0.375, 0, 0.1
235, 0.375, 0.05, 0
236, 0.375, 0.05, 0.05
237, 0.375, 0.05, 0.1
238, 0.375, 0.1, 0
239, 0.375, 0.1, 0.05
240, 0.375, 0.1, 0.1
241, 0.4, 0, 0
242, 0.4, 0, 0.025
243, 0.4, 0, 0.05
244, 0.4, 0, 0.075
245, 0.4, 0, 0.1
246, 0.4, 0.025, 0
247, 0.4, 0.025, 0.05
248, 0.4, 0.025, 0.1
249, 0.4, 0.05, 0
250, 0.4, 0.05, 0.025
251, 0.4, 0.05, 0.05
252, 0.4, 0.05, 0.075
253, 0.4, 0.05, 0.1
254, 0.4, 0.075, 0
255, 0.4, 0.075, 0.05
256, 0.4, 0.075, 0.1
257, 0.4, 0.1, 0
258, 0.4, 0.1, 0.025
259, 0.4, 0.1, 0.05
260, 0.4, 0.1, 0.075
261, 0.4, 0.1, 0.1
262, 0.425, 0, 0
263, 0.425, 0, 0.05
264, 0.425, 0, 0.1
265, 0.425, 0.05, 0
266, 0.425, 0.05, 0.05
267, 0.425, 0.05, 0.1
268, 0.425, 0.1, 0
269, 0.425, 0.1, 0.05
270, 0.425, 0.1, 0.1
271, 0.45, 0, 0
272, 0.45, 0, 0.025
273, 0.45, 0, 0.05
274, 0.45, 0, 0.075
275, 0.45, 0, 0.1
276, 0.45, 0.025, 0
277, 0.45, 0.025, 0.05
278, 0.45, 0.025, 0.1
279, 0.45, 0.05, 0
280, 0.45, 0.05, 0.025
281, 0.45, 0.05, 0.05
282, 0.45, 0.05, 0.075
283, 0.45, 0.05, 0.1
284, 0.45, 0.075, 0
285, 0.45, 0.075, 0.05
286, 0.45, 0.075, 0.1
287, 0.45, 0.1, 0
288, 0.45, 0.1, 0.025
289, 0.45, 0.1, 0.05
290, 0.45, 0.1, 0.075
291, 0.45, 0.1, 0.1
292, 0.475, 0, 0
293, 0.475, 0, 0.05
294, 0.475, 0, 0.1
295, 0.475, 0.05, 0
296, 0.475, 0.05, 0.05
297, 0.475, 0.05, 0.1
298, 0.475, 0.1, 0
299, 0.475, 0.1, 0.05
300, 0.475, 0.1, 0.1
301, 0.5, 0, 0
302, 0.5, 0, 0.025
303, 0.5, 0, 0.05
304, 0.5, 0, 0.075
305, 0.5, 0, 0.1
306, 0.5, 0.025, 0
307, 0.5, 0.025, 0.05
308, 0.5, 0.025, 0.1
309, 0.5, 0.05, 0
310, 0.5, 0.05, 0.025
311, 0.5, 0.05, 0.05
312, 0.5, 0.05, 0.075
313, 0.5, 0.05, 0.1
314, 0.5, 0.075, 0
315, 0.5, 0.075, 0.05
316, 0.5, 0.075, 0.1
317, 0.5, 0.1, 0
318, 0.5, 0.1, 0.025
319, 0.5, 0.1, 0.05
320, 0.5, 0.1, 0.075
321, 0.5, 0.1, 0.1
322, 0.525, 0, 0
323, 0.525, 0, 0.05
324, 0.525, 0, 0.1
325, 0.525, 0.05, 0
326, 0.525, 0.05, 0.05
327, 0.525, 0.05, 0.1
328, 0.525, 0.1, 0
329, 0.525, 0.1, 0.05
330, 0.525, 0.1, 0.1
331, 0.55, 0, 0
332, 0.55, 0, 0.025
333, 0.55, 0, 0.05
334, 0.55, 0, 0.075
335, 0.55, 0, 0.1
336, 0.55, 0.025, 0
337, 0.55, 0.025, 0.05
338, 0.55, 0.025, 0.1
339, 0.55, 0.05, 0
340, 0.55, 0.05, 0.025
341, 0.55, 0.05, 0.05
342, 0.55, 0.05, 0.075
343, 0.55, 0.05, 0.1
344, 0.55, 0.075, 0
345, 0.55, 0.075, 0.05
346, 0.55, 0.075, 0.1
347, 0.55, 0.1, 0
348, 0.55, 0.1, 0.025
349, 0.55, 0.1, 0.05
350, 0.55, 0.1, 0.075
351, 0.55, 0.1, 0.1
352, 0.575, 0, 0
353, 0.575, 0, 0.05
354, 0.575, 0, 0.1
355, 0.575, 0.05, 0
356, 0.575, 0.05, 0.05
357, 0.575, 0.05, 0.1
358, 0.575, 0.1, 0
359, 0.575, 0.1, 0.05
360, 0.575, 0.1, 0.1
361, 0.6, 0, 0
362, 0.6, 0, 0.025
363, 0.6, 0, 0.05
364, 0.6, 0, 0.075
365, 0.6, 0, 0.1
366, 0.6, 0.025, 0
367, 0.6, 0.025, 0.05
368, 0.6, 0.025, 0.1
369, 0.6, 0.05, 0
370, 0.6, 0.05, 0.025
371, 0.6, 0.05, 0.05
372, 0.6, 0.05, 0.075
373, 0.6, 0.05, 0.1
374, 0.6, 0.075, 0
375, 0.6, 0.075, 0.05
376, 0.6, 0.075, 0.1
377, 0.6, 0.1, 0
378, 0.6, 0.1, 0.025
379, 0.6, 0.1, 0.05
380, 0.6, 0.1, 0.075
381, 0.6, 0.1, 0.1
382, 0.625, 0, 0
383, 0.625, 0, 0.05
384, 0.625, 0, 0.1
385, 0.625, 0.05, 0
386, 0.625, 0.05, 0.05
387, 0.625, 0.05, 0.1
388, 0.625, 0.1, 0
389, 0.625, 0.1, 0.05
390, 0.625, 0.1, 0.1
391, 0.65, 0, 0
392, 0.65, 0, 0.025
393, 0.65, 0, 0.05
394, 0.65, 0, 0.075
395, 0.65, 0, 0.1
396, 0.65, 0.025, 0
397, 0.65, 0.025, 0.05
398, 0.65, 0.025, 0.1
399, 0.65, 0.05, 0
400, 0.65, 0.05, 0.025
401, 0.65, 0.05, 0.05
402, 0.65, 0.05, 0.075
403, 0.65, 0.05, 0.1
404, 0.65, 0.075, 0
405, 0.65, 0.075, 0.05
406, 0.65, 0.075, 0.1
407, 0.65, 0.1, 0
408, 0.65, 0.1, 0.025
409, 0.65, 0.1, 0.05
410, 0.65, 0.1, 0.075
411, 0.65, 0.1, 0.1
412, 0.675, 0, 0
413, 0.675, 0, 0.05
414, 0.675, 0, 0.1
415, 0.675, 0.05, 0
416, 0.675, 0.05, 0.05
417, 0.675, 0.05, 0.1
418, 0.675, 0.1, 0
419, 0.675, 0.1, 0.05
420, 0.675, 0.1, 0.1
421, 0.7, 0, 0
422, 0.7, 0, 0.025
423, 0.7, 0, 0.05
424, 0.7, 0, 0.075
425, 0.7, 0, 0.1
426, 0.7, 0.025, 0
427, 0.7, 0.025, 0.05
428, 0.7, 0.025, 0.1
429, 0.7, 0.05, 0
430, 0.7, 0.05, 0.025
431, 0.7, 0.05, 0.05
432, 0.7, 0.05, 0.075
433, 0.7, 0.05, 0.1
434, 0.7, 0.075, 0
435, 0.7, 0.075, 0.05
436, 0.7, 0.075, 0.1
437, 0.7, 0.1, 0
438, 0.7, 0.1, 0.025
439, 0.7, 0.1, 0.05
440, 0.7, 0.1, 0.075
441, 0.7, 0.1, 0.1
442, 0.725, 0, 0
443, 0.725, 0, 0.05
444, 0.725, 0, 0.1
445, 0.725, 0.05, 0
446, 0.725, 0.05, 0.05
447, 0.725, 0.05, 0.1
448, 0.725, 0.1, 0
449, 0.725, 0.1, 0.05
450, 0.725, 0.1, 0.1
451, 0.75, 0, 0
452, 0.75, 0, 0.025
453, 0.75, 0, 0.05
454, 0.75, 0, 0.075
455, 0.75, 0, 0.1
456, 0.75, 0.025, 0
457, 0.75, 0.025, 0.05
458, 0.75, 0.025, 0.1
459, 0.75, 0.05, 0
460, 0.75, 0.05, 0.025
461, 0.75, 0.05, 0.05
462, 0.75, 0.05, 0.075
463, 0.75, 0.05, 0.1
464, 0.75, 0.075, 0
465, 0.75, 0.075, 0.05
466, 0.75, 0.075, 0.1
467, 0.75, 0.1, 0
468, 0.75, 0.1, 0.025
469, 0.75, 0.1, 0.05
470, 0.75, 0.1, 0.075
471, 0.75, 0.1, 0.1
472, 0.775, 0, 0
473, 0.775, 0, 0.05
474, 0.775, 0, 0.1
475, 0.775, 0.05, 0
476, 0.775, 0.05, 0.05
477, 0.775, 0.05, 0.1
478, 0.775, 0.1, 0
479, 0.775, 0.1, 0.05
480, 0.775, 0.1, 0.1
481, 0.8, 0, 0
482, 0.8, 0, 0.025
483, 0.8, 0, 0.05
484, 0.8, 0, 0.075
485, 0.8, 0, 0.1
486, 0.8, 0.025, 0
487, 0.8, 0.025, 0.05
488, 0.8, 0.025, 0.1
489, 0.8, 0.05, 0
490, 0.8, 0.05, 0.025
491, 0.8, 0.05, 0.05
492, 0.8, 0.05, 0.075
493, 0.8, 0.05, 0.1
494, 0.8, 0.075, 0
495, 0.8, 0.075, 0.05
496, 0.8, 0.075, 0.1
497, 0.8, 0.1, 0
498, 0.8, 0.1, 0.025
499, 0.8, 0.1, 0.05
500, 0.8, 0.1, 0.075
501, 0.8, 0.1, 0.1
502, 0.825, 0, 0
503, 0.825, 0, 0.05
504, 0.825, 0, 0.1
505, 0.825, 0.05, 0
506, 0.825, 0.05, 0.05
507, 0.825, 0.05, 0.1
508, 0.825, 0.1, 0
509, 0.825, 0.1, 0.05
510, 0.825, 0.1, 0.1
511, 0.85, 0, 0
512, 0.85, 0, 0.025
513, 0.85, 0, 0.05
514, 0.85, 0, 0.075
515, 0.85, 0, 0.1
516, 0.85, 0.025, 0
517, 0.85, 0.025, 0.05
518, 0.85, 0.025, 0.1
519, 0.85, 0.05, 0
520, 0.85, 0.05, 0.025
521, 0.85, 0.05, 0.05
522, 0.85, 0.05, 0.075
523, 0.85, 0.05, 0.1
524, 0.85, 0.075, 0
525, 0.85, 0.075, 0.05
526, 0.85, 0.075, 0.1
527, 0.85, 0.1, 0
528, 0.85, 0.1, 0.025
529, 0.85, 0.1, 0.05
530, 0.85, 0.1, 0.075
531, 0.85, 0.1, 0.1
532, 0.875, 0, 0
533, 0.875, 0, 0.05
534, 0.875, 0, 0.1
535, 0.875, 0.05, 0
536, 0.875, 0.05, 0.05
537, 0.875, 0.05, 0.1
538, 0.875, 0.1, 0
539, 0.875, 0.1, 0.05
540, 0.875, 0.1, 0.1
541, 0.9, 0, 0
542, 0.9, 0, 0.025
543, 0.9, 0, 0.05
544, 0.9, 0, 0.075
545, 0.9, 0, 0.1
546, 0.9, 0.025, 0
547, 0.9, 0.025, 0.05
548, 0.9, 0.025, 0.1
549, 0.9, 0.05, 0
550, 0.9, 0.05, 0.025
551, 0.9, 0.05, 0.05
552, 0.9, 0.05, 0.075
553, 0.9, 0.05, 0.1
554, 0.9, 0.075, 0
555, 0.9, 0.075, 0.05
556, 0.9, 0.075, 0.1
557, 0.9, 0.1, 0
558, 0.9, 0.1, 0.025
559, 0.9, 0.1, 0.05
560, 0.9, 0.1, 0.075
561, 0.9, 0.1, 0.1
562, 0.925, 0, 0
563, 0.925, 0, 0.05
564, 0.925, 0, 0.1
565, 0.925, 0.05, 0
566, 0.925, 0.05, 0.05
567, 0.925, 0.05, 0.1
568, 0.925, 0.1, 0
569, 0.925, 0.1, 0.05
570, 0.925, 0.1, 0.1
571, 0.95, 0, 0
572, 0.95, 0, 0.025
573, 0.95, 0, 0.05
574, 0.95, 0, 0.075
575, 0.95, 0, 0.1
576, 0.95, 0.025, 0
577, 0.95, 0.025, 0.05
578, 0.95, 0.025, 0.1
579, 0.95, 0.05, 0
580, 0.95, 0.05, 0.025
581, 0.95, 0.05, 0.05
582, 0.95, 0.05, 0.075
583, 0.95, 0.05, 0.1
584, 0.95, 0.075, 0
585, 0.95, 0.075, 0.05
586, 0.95, 0.075, 0.1
587, 0.95, 0.1, 0
588, 0.95, 0.1, 0.025
589, 0.95, 0.1, 0.05
590, 0.95, 0.1, 0.075
591, 0.95, 0.1, 0.1
592, 0.975, 0, 0
593, 0.975, 0, 0.05
594, 0.975, 0, 0.1
595, 0.975, 0.05, 0
596, 0.975, 0.05, 0.05
597, 0.975, 0.05, 0.1
598, 0.975, 0.1, 0
599, 0.975, 0.1, 0.05
600, 0.975, 0.1, 0.1
601, 1, 0, 0
602, 1, 0, 0.025
603, 1, 0, 0.05
604, 1, 0, 0.075
605, 1, 0, 0.1
606, 1, 0.025, 0
607, 1, 0.025, 0.05
608, 1, 0.025, 0.1
609, 1, 0.05, 0
610, 1, 0.05, 0.025
611, 1, 0.05, 0.05
612, 1, 0.05, 0.075
613, 1, 0.05, 0.1
614, 1, 0.075, 0
615, 1, 0.075, 0.05
616, 1, 0.075, 0.1
617, 1, 0.1, 0
618, 1, 0.1, 0.025
619, 1, 0.1, 0.05
620, 1, 0.1, 0.075
621, 1, 0.1, 0.1
*ELEMENT, TYPE=C3D20R, ELSET=EALL
1, 1, 31, 39, 9, 3, 33, 41, 11, 22, 36, 25, 6, 23, 37, 26,
7, 2, 32, 40, 10
2, 3, 33, 41, 11, 5, 35, 43, 13, 23, 37, 26, 7, 24, 38, 27,
8, 4, 34, 42, 12
3, 9, 39, 47, 17, 11, 41, 49, 19, 25, 44, 28, 14, 26, 45, 29,
15, 10, 40, 48, 18
4, 11, 41, 49, 19, 13, 43, 51, 21, 26, 45, 29, 15, 27, 46, 30,
16, 12, 42, 50, 20
5, 31, 61, 69, 39, 33, 63, 71, 41, 52, 66, 55, 36, 53, 67, 56,
37, 32, 62, 70, 40
6, 33, 63, 71, 41, 35, 65, 73, 43, 53, 67, 56, 37, 54, 68, 57,
38, 34, 64, 72, 42
7, 39, 69, 77, 47, 41, 71, 79, 49, 55, 74, 58, 44, 56, 75, 59,
45, 40, 70, 78, 48
8, 41, 71, 79, 49, 43, 73, 81, 51, 56, 75, 59, 45, 57, 76, 60,
46, 42, 72, 80, 50
9, 61, 91, 99, 69, 63, 93, 101, 71, 82, 96, 85, 66, 83, 97, 86,
67, 62, 92, 100, 70
10, 63, 93, 101, 71, 65, 95, 103, 73, 83, 97, 86, 67, 84, 98, 87,
68, 64, 94, 102, 72
11, 69, 99, 107, 77, 71, 101, 109, 79, 85, 104, 88, 74, 86, 105, 89,
75, 70, 100, 108, 78
12, 71, 101, 109, 79, 73, 103, 111, 81, 86, 105, 89, 75, 87, 106, 90,
76, 72, 102, 110, 80
13, 91, 121, 129, 99, 93, 123, 131, 101, 112, 126, 115, 96, 113, 127, 116,
97, 92, 122, 130, 100
14, 93, 123, 131, 101, 95, 125, 133, 103, 113, 127, 116, 97, 114, 128, 117,
98, 94, 124, 132, 102
15, 99, 129, 137, 107, 101, 131, 139, 109, 115, 134, 118, 104, 116, 135, 119,
105, 100, 130, 138, 108
16, 101, 131, 139, 109, 103, 133, 141, 111, 116, 135, 119, 105, 117, 136, 120,
106, 102, 132, 140, 110
17, 121, 151, 159, 129, 123, 153, 161, 131, 142, 156, 145, 126, 143, 157, 146,
127, 122, 152, 160, 130
18, 123, 153, 161, 131, 125, 155, 163, 133, 143, 157, 146, 127, 144, 158, 147,
128, 124, 154, 162, 132
19, 129, 159, 167, 137, 131, 161, 169, 139, 145, 164, 148, 134, 146, 165, 149,
135, 130, 160, 168, 138
20, 131, 161, 169, 139, 133, 163, 171, 141, 146, 165, 149, 135, 147, 166, 150,
136, 132, 162, 170, 140
21, 151, 181, 189, 159, 153, 183, 191, 161, 172, 186, 175, 156, 173, 187, 176,
157, 152, 182, 190, 160
22, 153, 183, 191, 161, 155, 185, 193, 163, 173, 187, 176, 157, 174, 188, 177,
158, 154, 184, 192, 162
23, 159, 189, 197, 167, 161, 191, 199, 169, 175, 194, 178, 164, 176, 195, 179,
165, 160, 190, 198, 168
24, 161, 191, 199, 169, 163, 193, 201, 171, 176, 195, 179, 165, 177, 196, 180,
166, 162, 192, 200, 170
25, 181, 211, 219, 189, 183, 213, 221, 191, 202, 216, 205, 186, 203, 217, 206,
187, 182, 212, 220, 190
26, 183, 213, 221, 191, 185, 215, 223, 193, 203, 217, 206, 187, 204, 218, 207,
188, 184, 214, 222, 192
27, 189, 219, 227, 197, 191, 221, 229, 199, 205, 224, 208, 194, 206, 225, 209,
195, 190, 220, 228, 198
28, 191, 221, 229, 199, 193, 223, 231, 201, 206, 225, 209, 195, 207, 226, 210,
196, 192, 222, 230, 200
29, 211, 241, 249, 219, 213, 243, 251, 221, 232, 246, 235, 216, 233, 247, 236,
217, 212, 242, 250, 220
30, 213, 243, 251, 221, 215, 245, 253, 223, 233, 247, 236, 217, 234, 248, 237,
218, 214, 244, 252, 222
31, 219, 249, 257, 227, 221, 251, 259, 229, 235, 254, 238, 224, 236, 255, 239,
225, 220, 250, 258, 228
32, 221, 251, 259, 229, 223, 253, 261, 231, 236, 255, 239, 225, 237, 256, 240,
226, 222, 252, 260, 230
33, 241, 271, 279, 249, 243, 273, 281, 251, 262, 276, 265, 246, 263, 277, 266,
247, 242, 272, 280, 250
34, 243, 273, 281, 251, 245, 275, 283, 253, 263, 277, 266, 247, 264, 278, 267,
248, 244, 274, 282, 252
35, 249, 279, 287, 257, 251, 281, 289, 259, 265, 284, 268, 254, 266, 285, 269,
255, 250, 280, 288, 258
36, 251, 281, 289, 259, 253, 283, 291, 261, 266, 285, 269, 255, 267, 286, 270,
256, 252, 282, 290, 260
37, 271, 301, 309, 279, 273, 303, 311, 281, 292, 306, 295, 276, 293, 307, 296,
277, 272, 302, 310, 280
38, 273, 303, 311, 281, 275, 305, 313, 283, 293, 307, 296, 277, 294, 308, 297,
278, 274, 304, 312, 282
39, 279, 309, 317, 287, 281, 311, 319, 289, 295, 314, 298, 284, 296, 315, 299,
285, 280, 310, 318, 288
40, 281, 311, 319, 289, 283, 313, 321, 291, 296, 315, 299, 285, 297, 316, 300,
286, 282, 312, 320, 290
41, 301, 331, 339, 309, 303, 333, 341, 311, 322, 336, 325, 306, 323, 337, 326,
307, 302, 332, 340, 310
42, 303, 333, 341, 311, 305, 335, 343, 313, 323, 337, 326, 307, 324, 338, 327,
308, 304, 334, 342, 312
43, 309, 339, 347, 317, 311, 341, 349, 319, 325, 344, 328, 314, 326, 345, 329,
315, 310, 340, 348, 318
44, 311, 341, 349, 319, 313, 343, 351, 321, 326, 345, 329, 315, 327, 346, 330,
316, 312, 342, 350, 320
45, 331, 361, 369, 339, 333, 363, 371, 341, 352, 366, 355, 336, 353, 367, 356,
337, 332, 362, 370, 340
46, 333, 363, 371, 341, 335, 365, 373, 343, 353, 367, 356, 337, 354, 368, 357,
338, 334, 364, 372, 342
47, 339, 369, 377, 347, 341, 371, 379, 349, 355, 374, 358, 344, 356, 375, 359,
345, 340, 370, 378, 348
48, 341, 371, 379, 349, 343, 373, 381, 351, 356, 375, 359, 345, 357, 376, 360,
346, 342, 372, 380, 350
49, 361, 391, 399, 369, 363, 393, 401, 371, 382, 396, 385, 366, 383, 397, 386,
367, 362, 392, 400, 370
50, 363, 393, 401, 371, 365, 395, 403, 373, 383, 397, 386, 367, 384, 398, 387,
368, 364, 394, 402, 372
51, 369, 399, 407, 377, 371, 401, 409, 379, 385, 404, 388, 374, 386, 405, 389,
375, 370, 400, 408, 378
52, 371, 401, 409, 379, 373, 403, 411, 381, 386, 405, 389, 375, 387, 406, 390,
376, 372, 402, 410, 380
53, 391, 421, 429, 399, 393, 423, 431, 401, 412, 426, 415, 396, 413, 427, 416,
397, 392, 422, 430, 400
54, 393, 423, 431, 401, 395, 425, 433, 403, 413, 427, 416, 397, 414, 428, 417,
398, 394, 424, 432, 402
55, 399, 429, 437, 407, 401, 431, 439, 409, 415, 434, 418, 404, 416, 435, 419,
405, 400, 430, 438, 408
56, 401, 431, 439, 409, 403, 433, 441, 411, 416, 435, 419, 405, 417, 436, 420,
406, 402, 432, 440, 410
57, 421, 451, 459, 429, 423, 453, 461, 431, 442, 456, 445, 426, 443, 457, 446,
427, 422, 452, 460, 430
58, 423, 453, 461, 431, 425, 455, 463, 433, 443, 457, 446, 427, 444, 458, 447,
428, 424, 454, 462, 432
59, 429, 459, 467, 437, 431, 461, 469, 439, 445, 464, 448, 434, 446, 465, 449,
435, 430, 460, 468, 438
60, 431, 461, 469, 439, 433, 463, 471, 441, 446, 465, 449, 435, 447, 466, 450,
436, 432, 462, 470, 440
61, 451, 481, 489, 459, 453, 483, 491, 461, 472, 486, 475, 456, 473, 487, 476,
457, 452, 482, 490, 460
62, 453, 483, 491, 461, 455, 485, 493, 463, 473, 487, 476, 457, 474, 488, 477,
458, 454, 484, 492, 462
63, 459, 489, 497, 467, 461, 491, 499, 469, 475, 494, 478, 464, 476, 495, 479,
465, 460, 490, 498, 468
64, 461, 491, 499, 469, 463, 493, 501, 471, 476, 495, 479, 465, 477, 496, 480,
466, 462, 492, 500, 470
65, 481, 511, 519, 489, 483, 513, 521, 491, 502, 516, 505, 486, 503, 517, 506,
487, 482, 512, 520, 490
66, 483, 513, 521, 491, 485, 515, 523, 493, 503, 517, 506, 487, 504, 518, 507,
488, 484, 514, 522, 492
67, 489, 519, 527, 497, 491, 521, 529, 499, 505, 524, 508, 494, 506, 525, 509,
495, 490, 520, 528, 498
68, 491, 521, 529, 499, 493, 523, 531, 501, 506, 525, 509, 495, 507, 526, 510,
496, 492, 522, 530, 500
69, 511, 541, 549, 519, 513, 543, 551, 521, 532, 546, 535, 516, 533, 547, 536,
517, 512, 542, 550, 520
70, 513, 543, 551, 521, 515, 545, 553, 523, 533, 547, 536, 517, 534, 548, 537,
518, 514, 544, 552, 522
71, 519, 549, 557, 527, 521, 551, 559, 529, 535, 554, 538, 524, 536, 555, 539,
525, 520, 550, 558, 528
72, 521, 551, 559, 529, 523, 553, 561, 531, 536, 555, 539, 525, 537, 556, 540,
526, 522, 552, 560, 530
73, 541, 571, 579, 549, 543, 573, 581, 551, 562, 576, 565, 546, 563, 577, 566,
547, 542, 572, 580, 550
74, 543, 573, 581, 551, 545, 575, 583, 553, 563, 577, 566, 547, 564, 578, 567,
548, 544, 574, 582, 552
75, 549, 579, 587, 557, 551, 581, 589, 559, 565, 584, 568, 554, 566, 585, 569,
555, 550, 580, 588, 558
76, 551, 581, 589, 559, 553, 583, 591, 561, 566, 585, 569, 555, 567, 586, 570,
556, 552, 582, 590, 560
77, 571, 601, 609, 579, 573, 603, 611, 581, 592, 606, 595, 576, 593, 607, 596,
577, 572, 602, 610, 580
78, 573, 603, 611, 581, 575, 605, 613, 583, 593, 607, 596, 577, 594, 608, 597,
578, 574, 604, 612, 582
79, 579, 609, 617, 587, 581, 611, 619, 589, 595, 614, 598, 584, 596, 615, 599,
585, 580, 610, 618, 588
80, 581, 611, 619, 589, 583, 613, 621, 591, 596, 615, 599, 585, 597, 616, 600,
586, 582, 612, 620, 590
*NSET, NSET=FIXED
1, 2, 3, 4, 5, 6, 7, 8, 9, 10, 11, 12, 13, 14, 15, 16
17, 18, 19, 20, 21
*NSET, NSET=TIP
601, 602, 603, 604, 605, 606, 607, 608, 609, 610, 611, 612, 613, 614, 615, 616
617, 618, 619, 620, 621
*MATERIAL, NAME=STEEL
*ELASTIC
2.1e+11, 0.3
*SOLID SECTION, ELSET=EALL, MATERIAL=STEEL
*BOUNDARY
FIXED, 1, 3, 0
*STEP
*STATIC
*CLOAD
601, 3, -47.61904762
602, 3, -47.61904762
603, 3, -47.61904762
604, 3, -47.61904762
605, 3, -47.61904762
606, 3, -47.61904762
607, 3, -47.61904762
608, 3, -47.61904762
609, 3, -47.61904762
610, 3, -47.61904762
611, 3, -47.61904762
612, 3, -47.61904762
613, 3, -47.61904762
614, 3, -47.61904762
615, 3, -47.61904762
616, 3, -47.61904762
617, 3, -47.61904762
618, 3, -47.61904762
619, 3, -47.61904762
620, 3, -47.61904762
621, 3, -47.61904762
*NODE FILE
U
*EL FILE
S
*END STEP
