** Cantilever beam, steel, tip load, geometric nonlinearity
*HEADING
Cantilever beam 200x10x10 mm, tip load 500 N
*NODE, NSET=NALL
1, 0.0000, 0.0000, 0.0000
2, 5.0000, 0.0000, 0.0000
3, 10.0000, 0.0000, 0.0000
4, 15.0000, 0.0000, 0.0000
5, 20.0000, 0.0000, 0.0000
6, 25.0000, 0.0000, 0.0000
7, 30.0000, 0.0000, 0.0000
8, 35.0000, 0.0000, 0.0000
9, 40.0000, 0.0000, 0.0000
10, 45.0000, 0.0000, 0.0000
11, 50.0000, 0.0000, 0.0000
12, 55.0000, 0.0000, 0.0000
13, 60.0000, 0.0000, 0.0000
14, 65.0000, 0.0000, 0.0000
15, 70.0000, 0.0000, 0.0000
16, 75.0000, 0.0000, 0.0000
17, 80.0000, 0.0000, 0.0000
18, 85.0000, 0.0000, 0.0000
19, 90.0000, 0.0000, 0.0000
20, 95.0000, 0.0000, 0.0000
21, 100.0000, 0.0000, 0.0000
22, 105.0000, 0.0000, 0.0000
23, 110.0000, 0.0000, 0.0000
24, 115.0000, 0.0000, 0.0000
25, 120.0000, 0.0000, 0.0000
26, 125.0000, 0.0000, 0.0000
27, 130.0000, 0.0000, 0.0000
28, 135.0000, 0.0000, 0.0000
29, 140.0000, 0.0000, 0.0000
30, 145.0000, 0.0000, 0.0000
31, 150.0000, 0.0000, 0.0000
32, 155.0000, 0.0000, 0.0000
33, 160.0000, 0.0000, 0.0000
34, 165.0000, 0.0000, 0.0000
35, 170.0000, 0.0000, 0.0000
36, 175.0000, 0.0000, 0.0000
37, 180.0000, 0.0000, 0.0000
38, 185.0000, 0.0000, 0.0000
39, 190.0000, 0.0000, 0.0000
40, 195.0000, 0.0000, 0.0000
41, 200.0000, 0.0000, 0.0000
42, 0.0000, 2.5000, 0.0000
43, 5.0000, 2.5000, 0.0000
44, 10.0000, 2.5000, 0.0000
45, 15.0000, 2.5000, 0.0000
46, 20.0000, 2.5000, 0.0000
47, 25.0000, 2.5000, 0.0000
48, 30.0000, 2.5000, 0.0000
49, 35.0000, 2.5000, 0.0000
50, 40.0000, 2.5000, 0.0000
51, 45.0000, 2.5000, 0.0000
52, 50.0000, 2.5000, 0.0000
53, 55.0000, 2.5000, 0.0000
54, 60.0000, 2.5000, 0.0000
55, 65.0000, 2.5000, 0.0000
56, 70.0000, 2.5000, 0.0000
57, 75.0000, 2.5000, 0.0000
58, 80.0000, 2.5000, 0.0000
59, 85.0000, 2.5000, 0.0000
60, 90.0000, 2.5000, 0.0000
61, 95.0000, 2.5000, 0.0000
62, 100.0000, 2.5000, 0.0000
63, 105.0000, 2.5000, 0.0000
64, 110.0000, 2.5000, 0.0000
65, 115.0000, 2.5000, 0.0000
66, 120.0000, 2.5000, 0.0000
67, 125.0000, 2.5000, 0.0000
68, 130.0000, 2.5000, 0.0000
69, 135.0000, 2.5000, 0.0000
70, 140.0000, 2.5000, 0.0000
71, 145.0000, 2.5000, 0.0000
72, 150.0000, 2.5000, 0.0000
73, 155.0000, 2.5000, 0.0000
74, 160.0000, 2.5000, 0.0000
75, 165.0000, 2.5000, 0.0000
76, 170.0000, 2.5000, 0.0000
77, 175.0000, 2.5000, 0.0000
78, 180.0000, 2.5000, 0.0000
79, 185.0000, 2.5000, 0.0000
80, 190.0000, 2.5000, 0.0000
81, 195.0000, 2.5000, 0.0000
82, 200.0000, 2.5000, 0.0000
83, 0.0000, 5.0000, 0.0000
84, 5.0000, 5.0000, 0.0000
85, 10.0000, 5.0000, 0.0000
86, 15.0000, 5.0000, 0.0000
87, 20.0000, 5.0000, 0.0000
88, 25.0000, 5.0000, 0.0000
89, 30.0000, 5.0000, 0.0000
90, 35.0000, 5.0000, 0.0000
91, 40.0000, 5.0000, 0.0000
92, 45.0000, 5.0000, 0.0000
93, 50.0000, 5.0000, 0.0000
94, 55.0000, 5.0000, 0.0000
95, 60.0000, 5.0000, 0.0000
96, 65.0000, 5.0000, 0.0000
97, 70.0000, 5.0000, 0.0000
98, 75.0000, 5.0000, 0.0000
99, 80.0000, 5.0000, 0.0000
100, 85.0000, 5.0000, 0.0000
101, 90.0000, 5.0000, 0.0000
102, 95.0000, 5.0000, 0.0000
103, 100.0000, 5.0000, 0.0000
104, 105.0000, 5.0000, 0.0000
105, 110.0000, 5.0000, 0.0000
106, 115.0000, 5.0000, 0.0000
107, 120.0000, 5.0000, 0.0000
108, 125.0000, 5.0000, 0.0000
109, 130.0000, 5.0000, 0.0000
110, 135.0000, 5.0000, 0.0000
111, 140.0000, 5.0000, 0.0000
112, 145.0000, 5.0000, 0.0000
113, 150.0000, 5.0000, 0.0000
114, 155.0000, 5.0000, 0.0000
115, 160.0000, 5.0000, 0.0000
116, 165.0000, 5.0000, 0.0000
117, 170.0000, 5.0000, 0.0000
118, 175.0000, 5.0000, 0.0000
119, 180.0000, 5.0000, 0.0000
120, 185.0000, 5.0000, 0.0000
121, 190.0000, 5.0000, 0.0000
122, 195.0000, 5.0000, 0.0000
123, 200.0000, 5.0000, 0.0000
124, 0.0000, 7.5000, 0.0000
125, 5.0000, 7.5000, 0.0000
126, 10.0000, 7.5000, 0.0000
127, 15.0000, 7.5000, 0.0000
128, 20.0000, 7.5000, 0.0000
129, 25.0000, 7.5000, 0.0000
130, 30.0000, 7.5000, 0.0000
131, 35.0000, 7.5000, 0.0000
132, 40.0000, 7.5000, 0.0000
133, 45.0000, 7.5000, 0.0000
134, 50.0000, 7.5000, 0.0000
135, 55.0000, 7.5000, 0.0000
136, 60.0000, 7.5000, 0.0000
137, 65.0000, 7.5000, 0.0000
138, 70.0000, 7.5000, 0.0000
139, 75.0000, 7.5000, 0.0000
140, 80.0000, 7.5000, 0.0000
141, 85.0000, 7.5000, 0.0000
142, 90.0000, 7.5000, 0.0000
143, 95.0000, 7.5000, 0.0000
144, 100.0000, 7.5000, 0.0000
145, 105.0000, 7.5000, 0.0000
146, 110.0000, 7.5000, 0.0000
147, 115.0000, 7.5000, 0.0000
148, 120.0000, 7.5000, 0.0000
149, 125.0000, 7.5000, 0.0000
150, 130.0000, 7.5000, 0.0000
151, 135.0000, 7.5000, 0.0000
152, 140.0000, 7.5000, 0.0000
153, 145.0000, 7.5000, 0.0000
154, 150.0000, 7.5000, 0.0000
155, 155.0000, 7.5000, 0.0000
156, 160.0000, 7.5000, 0.0000
157, 165.0000, 7.5000, 0.0000
158, 170.0000, 7.5000, 0.0000
159, 175.0000, 7.5000, 0.0000
160, 180.0000, 7.5000, 0.0000
161, 185.0000, 7.5000, 0.0000
162, 190.0000, 7.5000, 0.0000
163, 195.0000, 7.5000, 0.0000
164, 200.0000, 7.5000, 0.0000
165, 0.0000, 10.0000, 0.0000
166, 5.0000, 10.0000, 0.0000
167, 10.0000, 10.0000, 0.0000
168, 15.0000, 10.0000, 0.0000
169, 20.0000, 10.0000, 0.0000
170, 25.0000, 10.0000, 0.0000
171, 30.0000, 10.0000, 0.0000
172, 35.0000, 10.0000, 0.0000
173, 40.0000, 10.0000, 0.0000
174, 45.0000, 10.0000, 0.0000
175, 50.0000, 10.0000, 0.0000
176, 55.0000, 10.0000, 0.0000
177, 60.0000, 10.0000, 0.0000
178, 65.0000, 10.0000, 0.0000
179, 70.0000, 10.0000, 0.0000
180, 75.0000, 10.0000, 0.0000
181, 80.0000, 10.0000, 0.0000
182, 85.0000, 10.0000, 0.0000
183, 90.0000, 10.0000, 0.0000
184, 95.0000, 10.0000, 0.0000
185, 100.0000, 10.0000, 0.0000
186, 105.0000, 10.0000, 0.0000
187, 110.0000, 10.0000, 0.0000
188, 115.0000, 10.0000, 0.0000
189, 120.0000, 10.0000, 0.0000
190, 125.0000, 10.0000, 0.0000
191, 130.0000, 10.0000, 0.0000
192, 135.0000, 10.0000, 0.0000
193, 140.0000, 10.0000, 0.0000
194, 145.0000, 10.0000, 0.0000
195, 150.0000, 10.0000, 0.0000
196, 155.0000, 10.0000, 0.0000
197, 160.0000, 10.0000, 0.0000
198, 165.0000, 10.0000, 0.0000
199, 170.0000, 10.0000, 0.0000
200, 175.0000, 10.0000, 0.0000
201, 180.0000, 10.0000, 0.0000
202, 185.0000, 10.0000, 0.0000
203, 190.0000, 10.0000, 0.0000
204, 195.0000, 10.0000, 0.0000
205, 200.0000, 10.0000, 0.0000
206, 0.0000, 0.0000, 2.5000
207, 5.0000, 0.0000, 2.5000
208, 10.0000, 0.0000, 2.5000
209, 15.0000, 0.0000, 2.5000
210, 20.0000, 0.0000, 2.5000
211, 25.0000, 0.0000, 2.5000
212, 30.0000, 0.0000, 2.5000
213, 35.0000, 0.0000, 2.5000
214, 40.0000, 0.0000, 2.5000
215, 45.0000, 0.0000, 2.5000
216, 50.0000, 0.0000, 2.5000
217, 55.0000, 0.0000, 2.5000
218, 60.0000, 0.0000, 2.5000
219, 65.0000, 0.0000, 2.5000
220, 70.0000, 0.0000, 2.5000
221, 75.0000, 0.0000, 2.5000
222, 80.0000, 0.0000, 2.5000
223, 85.0000, 0.0000, 2.5000
224, 90.0000, 0.0000, 2.5000
225, 95.0000, 0.0000, 2.5000
226, 100.0000, 0.0000, 2.5000
227, 105.0000, 0.0000, 2.5000
228, 110.0000, 0.0000, 2.5000
229, 115.0000, 0.0000, 2.5000
230, 120.0000, 0.0000, 2.5000
231, 125.0000, 0.0000, 2.5000
232, 130.0000, 0.0000, 2.5000
233, 135.0000, 0.0000, 2.5000
234, 140.0000, 0.0000, 2.5000
235, 145.0000, 0.0000, 2.5000
236, 150.0000, 0.0000, 2.5000
237, 155.0000, 0.0000, 2.5000
238, 160.0000, 0.0000, 2.5000
239, 165.0000, 0.0000, 2.5000
240, 170.0000, 0.0000, 2.5000
241, 175.0000, 0.0000, 2.5000
242, 180.0000, 0.0000, 2.5000
243, 185.0000, 0.0000, 2.5000
244, 190.0000, 0.0000, 2.5000
245, 195.0000, 0.0000, 2.5000
246, 200.0000, 0.0000, 2.5000
247, 0.0000, 2.5000, 2.5000
248, 5.0000, 2.5000, 2.5000
249, 10.0000, 2.5000, 2.5000
250, 15.0000, 2.5000, 2.5000
251, 20.0000, 2.5000, 2.5000
252, 25.0000, 2.5000, 2.5000
253, 30.0000, 2.5000, 2.5000
254, 35.0000, 2.5000, 2.5000
255, 40.0000, 2.5000, 2.5000
256, 45.0000, 2.5000, 2.5000
257, 50.0000, 2.5000, 2.5000
258, 55.0000, 2.5000, 2.5000
259, 60.0000, 2.5000, 2.5000
260, 65.0000, 2.5000, 2.5000
261, 70.0000, 2.5000, 2.5000
262, 75.0000, 2.5000, 2.5000
263, 80.0000, 2.5000, 2.5000
264, 85.0000, 2.5000, 2.5000
265, 90.0000, 2.5000, 2.5000
266, 95.0000, 2.5000, 2.5000
267, 100.0000, 2.5000, 2.5000
268, 105.0000, 2.5000, 2.5000
269, 110.0000, 2.5000, 2.5000
270, 115.0000, 2.5000, 2.5000
271, 120.0000, 2.5000, 2.5000
272, 125.0000, 2.5000, 2.5000
273, 130.0000, 2.5000, 2.5000
274, 135.0000, 2.5000, 2.5000
275, 140.0000, 2.5000, 2.5000
276, 145.0000, 2.5000, 2.5000
277, 150.0000, 2.5000, 2.5000
278, 155.0000, 2.5000, 2.5000
279, 160.0000, 2.5000, 2.5000
280, 165.0000, 2.5000, 2.5000
281, 170.0000, 2.5000, 2.5000
282, 175.0000, 2.5000, 2.5000
283, 180.0000, 2.5000, 2.5000
284, 185.0000, 2.5000, 2.5000
285, 190.0000, 2.5000, 2.5000
286, 195.0000, 2.5000, 2.5000
287, 200.0000, 2.5000, 2.5000
288, 0.0000, 5.0000, 2.5000
289, 5.0000, 5.0000, 2.5000
290, 10.0000, 5.0000, 2.5000
291, 15.0000, 5.0000, 2.5000
292, 20.0000, 5.0000, 2.5000
293, 25.0000, 5.0000, 2.5000
294, 30.0000, 5.0000, 2.5000
295, 35.0000, 5.0000, 2.5000
296, 40.0000, 5.0000, 2.5000
297, 45.0000, 5.0000, 2.5000
298, 50.0000, 5.0000, 2.5000
299, 55.0000, 5.0000, 2.5000
300, 60.0000, 5.0000, 2.5000
301, 65.0000, 5.0000, 2.5000
302, 70.0000, 5.0000, 2.5000
303, 75.0000, 5.0000, 2.5000
304, 80.0000, 5.0000, 2.5000
305, 85.0000, 5.0000, 2.5000
306, 90.0000, 5.0000, 2.5000
307, 95.0000, 5.0000, 2.5000
308, 100.0000, 5.0000, 2.5000
309, 105.0000, 5.0000, 2.5000
310, 110.0000, 5.0000, 2.5000
311, 115.0000, 5.0000, 2.5000
312, 120.0000, 5.0000, 2.5000
313, 125.0000, 5.0000, 2.5000
314, 130.0000, 5.0000, 2.5000
315, 135.0000, 5.0000, 2.5000
316, 140.0000, 5.0000, 2.5000
317, 145.0000, 5.0000, 2.5000
318, 150.0000, 5.0000, 2.5000
319, 155.0000, 5.0000, 2.5000
320, 160.0000, 5.0000, 2.5000
321, 165.0000, 5.0000, 2.5000
322, 170.0000, 5.0000, 2.5000
323, 175.0000, 5.0000, 2.5000
324, 180.0000, 5.0000, 2.5000
325, 185.0000, 5.0000, 2.5000
326, 190.0000, 5.0000, 2.5000
327, 195.0000, 5.0000, 2.5000
328, 200.0000, 5.0000, 2.5000
329, 0.0000, 7.5000, 2.5000
330, 5.0000, 7.5000, 2.5000
331, 10.0000, 7.5000, 2.5000
332, 15.0000, 7.5000, 2.5000
333, 20.0000, 7.5000, 2.5000
334, 25.0000, 7.5000, 2.5000
335, 30.0000, 7.5000, 2.5000
336, 35.0000, 7.5000, 2.5000
337, 40.0000, 7.5000, 2.5000
338, 45.0000, 7.5000, 2.5000
339, 50.0000, 7.5000, 2.5000
340, 55.0000, 7.5000, 2.5000
341, 60.0000, 7.5000, 2.5000
342, 65.0000, 7.5000, 2.5000
343, 70.0000, 7.5000, 2.5000
344, 75.0000, 7.5000, 2.5000
345, 80.0000, 7.5000, 2.5000
346, 85.0000, 7.5000, 2.5000
347, 90.0000, 7.5000, 2.5000
348, 95.0000, 7.5000, 2.5000
349, 100.0000, 7.5000, 2.5000
350, 105.0000, 7.5000, 2.5000
351, 110.0000, 7.5000, 2.5000
352, 115.0000, 7.5000, 2.5000
353, 120.0000, 7.5000, 2.5000
354, 125.0000, 7.5000, 2.5000
355, 130.0000, 7.5000, 2.5000
356, 135.0000, 7.5000, 2.5000
357, 140.0000, 7.5000, 2.5000
358, 145.0000, 7.5000, 2.5000
359, 150.0000, 7.5000, 2.5000
360, 155.0000, 7.5000, 2.5000
361, 160.0000, 7.5000, 2.5000
362, 165.0000, 7.5000, 2.5000
363, 170.0000, 7.5000, 2.5000
364, 175.0000, 7.5000, 2.5000
365, 180.0000, 7.5000, 2.5000
366, 185.0000, 7.5000, 2.5000
367, 190.0000, 7.5000, 2.5000
368, 195.0000, 7.5000, 2.5000
369, 200.0000, 7.5000, 2.5000
370, 0.0000, 10.0000, 2.5000
371, 5.0000, 10.0000, 2.5000
372, 10.0000, 10.0000, 2.5000
373, 15.0000, 10.0000, 2.5000
374, 20.0000, 10.0000, 2.5000
375, 25.0000, 10.0000, 2.5000
376, 30.0000, 10.0000, 2.5000
377, 35.0000, 10.0000, 2.5000
378, 40.0000, 10.0000, 2.5000
379, 45.0000, 10.0000, 2.5000
380, 50.0000, 10.0000, 2.5000
381, 55.0000, 10.0000, 2.5000
382, 60.0000, 10.0000, 2.5000
383, 65.0000, 10.0000, 2.5000
384, 70.0000, 10.0000, 2.5000
385, 75.0000, 10.0000, 2.5000
386, 80.0000, 10.0000, 2.5000
387, 85.0000, 10.0000, 2.5000
388, 90.0000, 10.0000, 2.5000
389, 95.0000, 10.0000, 2.5000
390, 100.0000, 10.0000, 2.5000
391, 105.0000, 10.0000, 2.5000
392, 110.0000, 10.0000, 2.5000
393, 115.0000, 10.0000, 2.5000
394, 120.0000, 10.0000, 2.5000
395, 125.0000, 10.0000, 2.5000
396, 130.0000, 10.0000, 2.5000
397, 135.0000, 10.0000, 2.5000
398, 140.0000, 10.0000, 2.5000
399, 145.0000, 10.0000, 2.5000
400, 150.0000, 10.0000, 2.5000
401, 155.0000, 10.0000, 2.5000
402, 160.0000, 10.0000, 2.5000
403, 165.0000, 10.0000, 2.5000
404, 170.0000, 10.0000, 2.5000
405, 175.0000, 10.0000, 2.5000
406, 180.0000, 10.0000, 2.5000
407, 185.0000, 10.0000, 2.5000
408, 190.0000, 10.0000, 2.5000
409, 195.0000, 10.0000, 2.5000
410, 200.0000, 10.0000, 2.5000
411, 0.0000, 0.0000, 5.0000
412, 5.0000, 0.0000, 5.0000
413, 10.0000, 0.0000, 5.0000
414, 15.0000, 0.0000, 5.0000
415, 20.0000, 0.0000, 5.0000
416, 25.0000, 0.0000, 5.0000
417, 30.0000, 0.0000, 5.0000
418, 35.0000, 0.0000, 5.0000
419, 40.0000, 0.0000, 5.0000
420, 45.0000, 0.0000, 5.0000
421, 50.0000, 0.0000, 5.0000
422, 55.0000, 0.0000, 5.0000
423, 60.0000, 0.0000, 5.0000
424, 65.0000, 0.0000, 5.0000
425, 70.0000, 0.0000, 5.0000
426, 75.0000, 0.0000, 5.0000
427, 80.0000, 0.0000, 5.0000
428, 85.0000, 0.0000, 5.0000
429, 90.0000, 0.0000, 5.0000
430, 95.0000, 0.0000, 5.0000
431, 100.0000, 0.0000, 5.0000
432, 105.0000, 0.0000, 5.0000
433, 110.0000, 0.0000, 5.0000
434, 115.0000, 0.0000, 5.0000
435, 120.0000, 0.0000, 5.0000
436, 125.0000, 0.0000, 5.0000
437, 130.0000, 0.0000, 5.0000
438, 135.0000, 0.0000, 5.0000
439, 140.0000, 0.0000, 5.0000
440, 145.0000, 0.0000, 5.0000
441, 150.0000, 0.0000, 5.0000
442, 155.0000, 0.0000, 5.0000
443, 160.0000, 0.0000, 5.0000
444, 165.0000, 0.0000, 5.0000
445, 170.0000, 0.0000, 5.0000
446, 175.0000, 0.0000, 5.0000
447, 180.0000, 0.0000, 5.0000
448, 185.0000, 0.0000, 5.0000
449, 190.0000, 0.0000, 5.0000
450, 195.0000, 0.0000, 5.0000
451, 200.0000, 0.0000, 5.0000
452, 0.0000, 2.5000, 5.0000
453, 5.0000, 2.5000, 5.0000
454, 10.0000, 2.5000, 5.0000
455, 15.0000, 2.5000, 5.0000
456, 20.0000, 2.5000, 5.0000
457, 25.0000, 2.5000, 5.0000
458, 30.0000, 2.5000, 5.0000
459, 35.0000, 2.5000, 5.0000
460, 40.0000, 2.5000, 5.0000
461, 45.0000, 2.5000, 5.0000
462, 50.0000, 2.5000, 5.0000
463, 55.0000, 2.5000, 5.0000
464, 60.0000, 2.5000, 5.0000
465, 65.0000, 2.5000, 5.0000
466, 70.0000, 2.5000, 5.0000
467, 75.0000, 2.5000, 5.0000
468, 80.0000, 2.5000, 5.0000
469, 85.0000, 2.5000, 5.0000
470, 90.0000, 2.5000, 5.0000
471, 95.0000, 2.5000, 5.0000
472, 100.0000, 2.5000, 5.0000
473, 105.0000, 2.5000, 5.0000
474, 110.0000, 2.5000, 5.0000
475, 115.0000, 2.5000, 5.0000
476, 120.0000, 2.5000, 5.0000
477, 125.0000, 2.5000, 5.0000
478, 130.0000, 2.5000, 5.0000
479, 135.0000, 2.5000, 5.0000
480, 140.0000, 2.5000, 5.0000
481, 145.0000, 2.5000, 5.0000
482, 150.0000, 2.5000, 5.0000
483, 155.0000, 2.5000, 5.0000
484, 160.0000, 2.5000, 5.0000
485, 165.0000, 2.5000, 5.0000
486, 170.0000, 2.5000, 5.0000
487, 175.0000, 2.5000, 5.0000
488, 180.0000, 2.5000, 5.0000
489, 185.0000, 2.5000, 5.0000
490, 190.0000, 2.5000, 5.0000
491, 195.0000, 2.5000, 5.0000
492, 200.0000, 2.5000, 5.0000
493, 0.0000, 5.0000, 5.0000
494, 5.0000, 5.0000, 5.0000
495, 10.0000, 5.0000, 5.0000
496, 15.0000, 5.0000, 5.0000
497, 20.0000, 5.0000, 5.0000
498, 25.0000, 5.0000, 5.0000
499, 30.0000, 5.0000, 5.0000
500, 35.0000, 5.0000, 5.0000
501, 40.0000, 5.0000, 5.0000
502, 45.0000, 5.0000, 5.0000
503, 50.0000, 5.0000, 5.0000
504, 55.0000, 5.0000, 5.0000
505, 60.0000, 5.0000, 5.0000
506, 65.0000, 5.0000, 5.0000
507, 70.0000, 5.0000, 5.0000
508, 75.0000, 5.0000, 5.0000
509, 80.0000, 5.0000, 5.0000
510, 85.0000, 5.0000, 5.0000
511, 90.0000, 5.0000, 5.0000
512, 95.0000, 5.0000, 5.0000
513, 100.0000, 5.0000, 5.0000
514, 105.0000, 5.0000, 5.0000
515, 110.0000, 5.0000, 5.0000
516, 115.0000, 5.0000, 5.0000
517, 120.0000, 5.0000, 5.0000
518, 125.0000, 5.0000, 5.0000
519, 130.0000, 5.0000, 5.0000
520, 135.0000, 5.0000, 5.0000
521, 140.0000, 5.0000, 5.0000
522, 145.0000, 5.0000, 5.0000
523, 150.0000, 5.0000, 5.0000
524, 155.0000, 5.0000, 5.0000
525, 160.0000, 5.0000, 5.0000
526, 165.0000, 5.0000, 5.0000
527, 170.0000, 5.0000, 5.0000
528, 175.0000, 5.0000, 5.0000
529, 180.0000, 5.0000, 5.0000
530, 185.0000, 5.0000, 5.0000
531, 190.0000, 5.0000, 5.0000
532, 195.0000, 5.0000, 5.0000
533, 200.0000, 5.0000, 5.0000
534, 0.0000, 7.5000, 5.0000
535, 5.0000, 7.5000, 5.0000
536, 10.0000, 7.5000, 5.0000
537, 15.0000, 7.5000, 5.0000
538, 20.0000, 7.5000, 5.0000
539, 25.0000, 7.5000, 5.0000
540, 30.0000, 7.5000, 5.0000
541, 35.0000, 7.5000, 5.0000
542, 40.0000, 7.5000, 5.0000
543, 45.0000, 7.5000, 5.0000
544, 50.0000, 7.5000, 5.0000
545, 55.0000, 7.5000, 5.0000
546, 60.0000, 7.5000, 5.0000
547, 65.0000, 7.5000, 5.0000
548, 70.0000, 7.5000, 5.0000
549, 75.0000, 7.5000, 5.0000
550, 80.0000, 7.5000, 5.0000
551, 85.0000, 7.5000, 5.0000
552, 90.0000, 7.5000, 5.0000
553, 95.0000, 7.5000, 5.0000
554, 100.0000, 7.5000, 5.0000
555, 105.0000, 7.5000, 5.0000
556, 110.0000, 7.5000, 5.0000
557, 115.0000, 7.5000, 5.0000
558, 120.0000, 7.5000, 5.0000
559, 125.0000, 7.5000, 5.0000
560, 130.0000, 7.5000, 5.0000
561, 135.0000, 7.5000, 5.0000
562, 140.0000, 7.5000, 5.0000
563, 145.0000, 7.5000, 5.0000
564, 150.0000, 7.5000, 5.0000
565, 155.0000, 7.5000, 5.0000
566, 160.0000, 7.5000, 5.0000
567, 165.0000, 7.5000, 5.0000
568, 170.0000, 7.5000, 5.0000
569, 175.0000, 7.5000, 5.0000
570, 180.0000, 7.5000, 5.0000
571, 185.0000, 7.5000, 5.0000
572, 190.0000, 7.5000, 5.0000
573, 195.0000, 7.5000, 5.0000
574, 200.0000, 7.5000, 5.0000
575, 0.0000, 10.0000, 5.0000
576, 5.0000, 10.0000, 5.0000
577, 10.0000, 10.0000, 5.0000
578, 15.0000, 10.0000, 5.0000
579, 20.0000, 10.0000, 5.0000
580, 25.0000, 10.0000, 5.0000
581, 30.0000, 10.0000, 5.0000
582, 35.0000, 10.0000, 5.0000
583, 40.0000, 10.0000, 5.0000
584, 45.0000, 10.0000, 5.0000
585, 50.0000, 10.0000, 5.0000
586, 55.0000, 10.0000, 5.0000
587, 60.0000, 10.0000, 5.0000
588, 65.0000, 10.0000, 5.0000
589, 70.0000, 10.0000, 5.0000
590, 75.0000, 10.0000, 5.0000
591, 80.0000, 10.0000, 5.0000
592, 85.0000, 10.0000, 5.0000
593, 90.0000, 10.0000, 5.0000
594, 95.0000, 10.0000, 5.0000
595, 100.0000, 10.0000, 5.0000
596, 105.0000, 10.0000, 5.0000
597, 110.0000, 10.0000, 5.0000
598, 115.0000, 10.0000, 5.0000
599, 120.0000, 10.0000, 5.0000
600, 125.0000, 10.0000, 5.0000
601, 130.0000, 10.0000, 5.0000
602, 135.0000, 10.0000, 5.0000
603, 140.0000, 10.0000, 5.0000
604, 145.0000, 10.0000, 5.0000
605, 150.0000, 10.0000, 5.0000
606, 155.0000, 10.0000, 5.0000
607, 160.0000, 10.0000, 5.0000
608, 165.0000, 10.0000, 5.0000
609, 170.0000, 10.0000, 5.0000
610, 175.0000, 10.0000, 5.0000
611, 180.0000, 10.0000, 5.0000
612, 185.0000, 10.0000, 5.0000
613, 190.0000, 10.0000, 5.0000
614, 195.0000, 10.0000, 5.0000
615, 200.0000, 10.0000, 5.0000
616, 0.0000, 0.0000, 7.5000
617, 5.0000, 0.0000, 7.5000
618, 10.0000, 0.0000, 7.5000
619, 15.0000, 0.0000, 7.5000
620, 20.0000, 0.0000, 7.5000
621, 25.0000, 0.0000, 7.5000
622, 30.0000, 0.0000, 7.5000
623, 35.0000, 0.0000, 7.5000
624, 40.0000, 0.0000, 7.5000
625, 45.0000, 0.0000, 7.5000
626, 50.0000, 0.0000, 7.5000
627, 55.0000, 0.0000, 7.5000
628, 60.0000, 0.0000, 7.5000
629, 65.0000, 0.0000, 7.5000
630, 70.0000, 0.0000, 7.5000
631, 75.0000, 0.0000, 7.5000
632, 80.0000, 0.0000, 7.5000
633, 85.0000, 0.0000, 7.5000
634, 90.0000, 0.0000, 7.5000
635, 95.0000, 0.0000, 7.5000
636, 100.0000, 0.0000, 7.5000
637, 105.0000, 0.0000, 7.5000
638, 110.0000, 0.0000, 7.5000
639, 115.0000, 0.0000, 7.5000
640, 120.0000, 0.0000, 7.5000
641, 125.0000, 0.0000, 7.5000
642, 130.0000, 0.0000, 7.5000
643, 135.0000, 0.0000, 7.5000
644, 140.0000, 0.0000, 7.5000
645, 145.0000, 0.0000, 7.5000
646, 150.0000, 0.0000, 7.5000
647, 155.0000, 0.0000, 7.5000
648, 160.0000, 0.0000, 7.5000
649, 165.0000, 0.0000, 7.5000
650, 170.0000, 0.0000, 7.5000
651, 175.0000, 0.0000, 7.5000
652, 180.0000, 0.0000, 7.5000
653, 185.0000, 0.0000, 7.5000
654, 190.0000, 0.0000, 7.5000
655, 195.0000, 0.0000, 7.5000
656, 200.0000, 0.0000, 7.5000
657, 0.0000, 2.5000, 7.5000
658, 5.0000, 2.5000, 7.5000
659, 10.0000, 2.5000, 7.5000
660, 15.0000, 2.5000, 7.5000
661, 20.0000, 2.5000, 7.5000
662, 25.0000, 2.5000, 7.5000
663, 30.0000, 2.5000, 7.5000
664, 35.0000, 2.5000, 7.5000
665, 40.0000, 2.5000, 7.5000
666, 45.0000, 2.5000, 7.5000
667, 50.0000, 2.5000, 7.5000
668, 55.0000, 2.5000, 7.5000
669, 60.0000, 2.5000, 7.5000
670, 65.0000, 2.5000, 7.5000
671, 70.0000, 2.5000, 7.5000
672, 75.0000, 2.5000, 7.5000
673, 80.0000, 2.5000, 7.5000
674, 85.0000, 2.5000, 7.5000
675, 90.0000, 2.5000, 7.5000
676, 95.0000, 2.5000, 7.5000
677, 100.0000, 2.5000, 7.5000
678, 105.0000, 2.5000, 7.5000
679, 110.0000, 2.5000, 7.5000
680, 115.0000, 2.5000, 7.5000
681, 120.0000, 2.5000, 7.5000
682, 125.0000, 2.5000, 7.5000
683, 130.0000, 2.5000, 7.5000
684, 135.0000, 2.5000, 7.5000
685, 140.0000, 2.5000, 7.5000
686, 145.0000, 2.5000, 7.5000
687, 150.0000, 2.5000, 7.5000
688, 155.0000, 2.5000, 7.5000
689, 160.0000, 2.5000, 7.5000
690, 165.0000, 2.5000, 7.5000
691, 170.0000, 2.5000, 7.5000
692, 175.0000, 2.5000, 7.5000
693, 180.0000, 2.5000, 7.5000
694, 185.0000, 2.5000, 7.5000
695, 190.0000, 2.5000, 7.5000
696, 195.0000, 2.5000, 7.5000
697, 200.0000, 2.5000, 7.5000
698, 0.0000, 5.0000, 7.5000
699, 5.0000, 5.0000, 7.5000
700, 10.0000, 5.0000, 7.5000
701, 15.0000, 5.0000, 7.5000
702, 20.0000, 5.0000, 7.5000
703, 25.0000, 5.0000, 7.5000
704, 30.0000, 5.0000, 7.5000
705, 35.0000, 5.0000, 7.5000
706, 40.0000, 5.0000, 7.5000
707, 45.0000, 5.0000, 7.5000
708, 50.0000, 5.0000, 7.5000
709, 55.0000, 5.0000, 7.5000
710, 60.0000, 5.0000, 7.5000
711, 65.0000, 5.0000, 7.5000
712, 70.0000, 5.0000, 7.5000
713, 75.0000, 5.0000, 7.5000
714, 80.0000, 5.0000, 7.5000
715, 85.0000, 5.0000, 7.5000
716, 90.0000, 5.0000, 7.5000
717, 95.0000, 5.0000, 7.5000
718, 100.0000, 5.0000, 7.5000
719, 105.0000, 5.0000, 7.5000
720, 110.0000, 5.0000, 7.5000
721, 115.0000, 5.0000, 7.5000
722, 120.0000, 5.0000, 7.5000
723, 125.0000, 5.0000, 7.5000
724, 130.0000, 5.0000, 7.5000
725, 135.0000, 5.0000, 7.5000
726, 140.0000, 5.0000, 7.5000
727, 145.0000, 5.0000, 7.5000
728, 150.0000, 5.0000, 7.5000
729, 155.0000, 5.0000, 7.5000
730, 160.0000, 5.0000, 7.5000
731, 165.0000, 5.0000, 7.5000
732, 170.0000, 5.0000, 7.5000
733, 175.0000, 5.0000, 7.5000
734, 180.0000, 5.0000, 7.5000
735, 185.0000, 5.0000, 7.5000
736, 190.0000, 5.0000, 7.5000
737, 195.0000, 5.0000, 7.5000
738, 200.0000, 5.0000, 7.5000
739, 0.0000, 7.5000, 7.5000
740, 5.0000, 7.5000, 7.5000
741, 10.0000, 7.5000, 7.5000
742, 15.0000, 7.5000, 7.5000
743, 20.0000, 7.5000, 7.5000
744, 25.0000, 7.5000, 7.5000
745, 30.0000, 7.5000, 7.5000
746, 35.0000, 7.5000, 7.5000
747, 40.0000, 7.5000, 7.5000
748, 45.0000, 7.5000, 7.5000
749, 50.0000, 7.5000, 7.5000
750, 55.0000, 7.5000, 7.5000
751, 60.0000, 7.5000, 7.5000
752, 65.0000, 7.5000, 7.5000
753, 70.0000, 7.5000, 7.5000
754, 75.0000, 7.5000, 7.5000
755, 80.0000, 7.5000, 7.5000
756, 85.0000, 7.5000, 7.5000
757, 90.0000, 7.5000, 7.5000
758, 95.0000, 7.5000, 7.5000
759, 100.0000, 7.5000, 7.5000
760, 105.0000, 7.5000, 7.5000
761, 110.0000, 7.5000, 7.5000
762, 115.0000, 7.5000, 7.5000
763, 120.0000, 7.5000, 7.5000
764, 125.0000, 7.5000, 7.5000
765, 130.0000, 7.5000, 7.5000
766, 135.0000, 7.5000, 7.5000
767, 140.0000, 7.5000, 7.5000
768, 145.0000, 7.5000, 7.5000
769, 150.0000, 7.5000, 7.5000
770, 155.0000, 7.5000, 7.5000
771, 160.0000, 7.5000, 7.5000
772, 165.0000, 7.5000, 7.5000
773, 170.0000, 7.5000, 7.5000
774, 175.0000, 7.5000, 7.5000
775, 180.0000, 7.5000, 7.5000
776, 185.0000, 7.5000, 7.5000
777, 190.0000, 7.5000, 7.5000
778, 195.0000, 7.5000, 7.5000
779, 200.0000, 7.5000, 7.5000
780, 0.0000, 10.0000, 7.5000
781, 5.0000, 10.0000, 7.5000
782, 10.0000, 10.0000, 7.5000
783, 15.0000, 10.0000, 7.5000
784, 20.0000, 10.0000, 7.5000
785, 25.0000, 10.0000, 7.5000
786, 30.0000, 10.0000, 7.5000
787, 35.0000, 10.0000, 7.5000
788, 40.0000, 10.0000, 7.5000
789, 45.0000, 10.0000, 7.5000
790, 50.0000, 10.0000, 7.5000
791, 55.0000, 10.0000, 7.5000
792, 60.0000, 10.0000, 7.5000
793, 65.0000, 10.0000, 7.5000
794, 70.0000, 10.0000, 7.5000
795, 75.0000, 10.0000, 7.5000
796, 80.0000, 10.0000, 7.5000
797, 85.0000, 10.0000, 7.5000
798, 90.0000, 10.0000, 7.5000
799, 95.0000, 10.0000, 7.5000
800, 100.0000, 10.0000, 7.5000
801, 105.0000, 10.0000, 7.5000
802, 110.0000, 10.0000, 7.5000
803, 115.0000, 10.0000, 7.5000
804, 120.0000, 10.0000, 7.5000
805, 125.0000, 10.0000, 7.5000
806, 130.0000, 10.0000, 7.5000
807, 135.0000, 10.0000, 7.5000
808, 140.0000, 10.0000, 7.5000
809, 145.0000, 10.0000, 7.5000
810, 150.0000, 10.0000, 7.5000
811, 155.0000, 10.0000, 7.5000
812, 160.0000, 10.0000, 7.5000
813, 165.0000, 10.0000, 7.5000
814, 170.0000, 10.0000, 7.5000
815, 175.0000, 10.0000, 7.5000
816, 180.0000, 10.0000, 7.5000
817, 185.0000, 10.0000, 7.5000
818, 190.0000, 10.0000, 7.5000
819, 195.0000, 10.0000, 7.5000
820, 200.0000, 10.0000, 7.5000
821, 0.0000, 0.0000, 10.0000
822, 5.0000, 0.0000, 10.0000
823, 10.0000, 0.0000, 10.0000
824, 15.0000, 0.0000, 10.0000
825, 20.0000, 0.0000, 10.0000
826, 25.0000, 0.0000, 10.0000
827, 30.0000, 0.0000, 10.0000
828, 35.0000, 0.0000, 10.0000
829, 40.0000, 0.0000, 10.0000
830, 45.0000, 0.0000, 10.0000
831, 50.0000, 0.0000, 10.0000
832, 55.0000, 0.0000, 10.0000
833, 60.0000, 0.0000, 10.0000
834, 65.0000, 0.0000, 10.0000
835, 70.0000, 0.0000, 10.0000
836, 75.0000, 0.0000, 10.0000
837, 80.0000, 0.0000, 10.0000
838, 85.0000, 0.0000, 10.0000
839, 90.0000, 0.0000, 10.0000
840, 95.0000, 0.0000, 10.0000
841, 100.0000, 0.0000, 10.0000
842, 105.0000, 0.0000, 10.0000
843, 110.0000, 0.0000, 10.0000
844, 115.0000, 0.0000, 10.0000
845, 120.0000, 0.0000, 10.0000
846, 125.0000, 0.0000, 10.0000
847, 130.0000, 0.0000, 10.0000
848, 135.0000, 0.0000, 10.0000
849, 140.0000, 0.0000, 10.0000
850, 145.0000, 0.0000, 10.0000
851, 150.0000, 0.0000, 10.0000
852, 155.0000, 0.0000, 10.0000
853, 160.0000, 0.0000, 10.0000
854, 165.0000, 0.0000, 10.0000
855, 170.0000, 0.0000, 10.0000
856, 175.0000, 0.0000, 10.0000
857, 180.0000, 0.0000, 10.0000
858, 185.0000, 0.0000, 10.0000
859, 190.0000, 0.0000, 10.0000
860, 195.0000, 0.0000, 10.0000
861, 200.0000, 0.0000, 10.0000
862, 0.0000, 2.5000, 10.0000
863, 5.0000, 2.5000, 10.0000
864, 10.0000, 2.5000, 10.0000
865, 15.0000, 2.5000, 10.0000
866, 20.0000, 2.5000, 10.0000
867, 25.0000, 2.5000, 10.0000
868, 30.0000, 2.5000, 10.0000
869, 35.0000, 2.5000, 10.0000
870, 40.0000, 2.5000, 10.0000
871, 45.0000, 2.5000, 10.0000
872, 50.0000, 2.5000, 10.0000
873, 55.0000, 2.5000, 10.0000
874, 60.0000, 2.5000, 10.0000
875, 65.0000, 2.5000, 10.0000
876, 70.0000, 2.5000, 10.0000
877, 75.0000, 2.5000, 10.0000
878, 80.0000, 2.5000, 10.0000
879, 85.0000, 2.5000, 10.0000
880, 90.0000, 2.5000, 10.0000
881, 95.0000, 2.5000, 10.0000
882, 100.0000, 2.5000, 10.0000
883, 105.0000, 2.5000, 10.0000
884, 110.0000, 2.5000, 10.0000
885, 115.0000, 2.5000, 10.0000
886, 120.0000, 2.5000, 10.0000
887, 125.0000, 2.5000, 10.0000
888, 130.0000, 2.5000, 10.0000
889, 135.0000, 2.5000, 10.0000
890, 140.0000, 2.5000, 10.0000
891, 145.0000, 2.5000, 10.0000
892, 150.0000, 2.5000, 10.0000
893, 155.0000, 2.5000, 10.0000
894, 160.0000, 2.5000, 10.0000
895, 165.0000, 2.5000, 10.0000
896, 170.0000, 2.5000, 10.0000
897, 175.0000, 2.5000, 10.0000
898, 180.0000, 2.5000, 10.0000
899, 185.0000, 2.5000, 10.0000
900, 190.0000, 2.5000, 10.0000
901, 195.0000, 2.5000, 10.0000
902, 200.0000, 2.5000, 10.0000
903, 0.0000, 5.0000, 10.0000
904, 5.0000, 5.0000, 10.0000
905, 10.0000, 5.0000, 10.0000
906, 15.0000, 5.0000, 10.0000
907, 20.0000, 5.0000, 10.0000
908, 25.0000, 5.0000, 10.0000
909, 30.0000, 5.0000, 10.0000
910, 35.0000, 5.0000, 10.0000
911, 40.0000, 5.0000, 10.0000
912, 45.0000, 5.0000, 10.0000
913, 50.0000, 5.0000, 10.0000
914, 55.0000, 5.0000, 10.0000
915, 60.0000, 5.0000, 10.0000
916, 65.0000, 5.0000, 10.0000
917, 70.0000, 5.0000, 10.0000
918, 75.0000, 5.0000, 10.0000
919, 80.0000, 5.0000, 10.0000
920, 85.0000, 5.0000, 10.0000
921, 90.0000, 5.0000, 10.0000
922, 95.0000, 5.0000, 10.0000
923, 100.0000, 5.0000, 10.0000
924, 105.0000, 5.0000, 10.0000
925, 110.0000, 5.0000, 10.0000
926, 115.0000, 5.0000, 10.0000
927, 120.0000, 5.0000, 10.0000
928, 125.0000, 5.0000, 10.0000
929, 130.0000, 5.0000, 10.0000
930, 135.0000, 5.0000, 10.0000
931, 140.0000, 5.0000, 10.0000
932, 145.0000, 5.0000, 10.0000
933, 150.0000, 5.0000, 10.0000
934, 155.0000, 5.0000, 10.0000
935, 160.0000, 5.0000, 10.0000
936, 165.0000, 5.0000, 10.0000
937, 170.0000, 5.0000, 10.0000
938, 175.0000, 5.0000, 10.0000
939, 180.0000, 5.0000, 10.0000
940, 185.0000, 5.0000, 10.0000
941, 190.0000, 5.0000, 10.0000
942, 195.0000, 5.0000, 10.0000
943, 200.0000, 5.0000, 10.0000
944, 0.0000, 7.5000, 10.0000
945, 5.0000, 7.5000, 10.0000
946, 10.0000, 7.5000, 10.0000
947, 15.0000, 7.5000, 10.0000
948, 20.0000, 7.5000, 10.0000
949, 25.0000, 7.5000, 10.0000
950, 30.0000, 7.5000, 10.0000
951, 35.0000, 7.5000, 10.0000
952, 40.0000, 7.5000, 10.0000
953, 45.0000, 7.5000, 10.0000
954, 50.0000, 7.5000, 10.0000
955, 55.0000, 7.5000, 10.0000
956, 60.0000, 7.5000, 10.0000
957, 65.0000, 7.5000, 10.0000
958, 70.0000, 7.5000, 10.0000
959, 75.0000, 7.5000, 10.0000
960, 80.0000, 7.5000, 10.0000
961, 85.0000, 7.5000, 10.0000
962, 90.0000, 7.5000, 10.0000
963, 95.0000, 7.5000, 10.0000
964, 100.0000, 7.5000, 10.0000
965, 105.0000, 7.5000, 10.0000
966, 110.0000, 7.5000, 10.0000
967, 115.0000, 7.5000, 10.0000
968, 120.0000, 7.5000, 10.0000
969, 125.0000, 7.5000, 10.0000
970, 130.0000, 7.5000, 10.0000
971, 135.0000, 7.5000, 10.0000
972, 140.0000, 7.5000, 10.0000
973, 145.0000, 7.5000, 10.0000
974, 150.0000, 7.5000, 10.0000
975, 155.0000, 7.5000, 10.0000
976, 160.0000, 7.5000, 10.0000
977, 165.0000, 7.5000, 10.0000
978, 170.0000, 7.5000, 10.0000
979, 175.0000, 7.5000, 10.0000
980, 180.0000, 7.5000, 10.0000
981, 185.0000, 7.5000, 10.0000
982, 190.0000, 7.5000, 10.0000
983, 195.0000, 7.5000, 10.0000
984, 200.0000, 7.5000, 10.0000
985, 0.0000, 10.0000, 10.0000
986, 5.0000, 10.0000, 10.0000
987, 10.0000, 10.0000, 10.0000
988, 15.0000, 10.0000, 10.0000
989, 20.0000, 10.0000, 10.0000
990, 25.0000, 10.0000, 10.0000
991, 30.0000, 10.0000, 10.0000
992, 35.0000, 10.0000, 10.0000
993, 40.0000, 10.0000, 10.0000
994, 45.0000, 10.0000, 10.0000
995, 50.0000, 10.0000, 10.0000
996, 55.0000, 10.0000, 10.0000
997, 60.0000, 10.0000, 10.0000
998, 65.0000, 10.0000, 10.0000
999, 70.0000, 10.0000, 10.0000
1000, 75.0000, 10.0000, 10.0000
1001, 80.0000, 10.0000, 10.0000
1002, 85.0000, 10.0000, 10.0000
1003, 90.0000, 10.0000, 10.0000
1004, 95.0000, 10.0000, 10.0000
1005, 100.0000, 10.0000, 10.0000
1006, 105.0000, 10.0000, 10.0000
1007, 110.0000, 10.0000, 10.0000
1008, 115.0000, 10.0000, 10.0000
1009, 120.0000, 10.0000, 10.0000
1010, 125.0000, 10.0000, 10.0000
1011, 130.0000, 10.0000, 10.0000
1012, 135.0000, 10.0000, 10.0000
1013, 140.0000, 10.0000, 10.0000
1014, 145.0000, 10.0000, 10.0000
1015, 150.0000, 10.0000, 10.0000
1016, 155.0000, 10.0000, 10.0000
1017, 160.0000, 10.0000, 10.0000
1018, 165.0000, 10.0000, 10.0000
1019, 170.0000, 10.0000, 10.0000
1020, 175.0000, 10.0000, 10.0000
1021, 180.0000, 10.0000, 10.0000
1022, 185.0000, 10.0000, 10.0000
1023, 190.0000, 10.0000, 10.0000
1024, 195.0000, 10.0000, 10.0000
1025, 200.0000, 10.0000, 10.0000
*ELEMENT, TYPE=C3D8I, ELSET=EALL
1, 1, 2, 43, 42, 206, 207, 248, 247
2, 2, 3, 44, 43, 207, 208, 249, 248
3, 3, 4, 45, 44, 208, 209, 250, 249
4, 4, 5, 46, 45, 209, 210, 251, 250
5, 5, 6, 47, 46, 210, 211, 252, 251
6, 6, 7, 48, 47, 211, 212, 253, 252
7, 7, 8, 49, 48, 212, 213, 254, 253
8, 8, 9, 50, 49, 213, 214, 255, 254
9, 9, 10, 51, 50, 214, 215, 256, 255
10, 10, 11, 52, 51, 215, 216, 257, 256
11, 11, 12, 53, 52, 216, 217, 258, 257
12, 12, 13, 54, 53, 217, 218, 259, 258
13, 13, 14, 55, 54, 218, 219, 260, 259
14, 14, 15, 56, 55, 219, 220, 261, 260
15, 15, 16, 57, 56, 220, 221, 262, 261
16, 16, 17, 58, 57, 221, 222, 263, 262
17, 17, 18, 59, 58, 222, 223, 264, 263
18, 18, 19, 60, 59, 223, 224, 265, 264
19, 19, 20, 61, 60, 224, 225, 266, 265
20, 20, 21, 62, 61, 225, 226, 267, 266
21, 21, 22, 63, 62, 226, 227, 268, 267
22, 22, 23, 64, 63, 227, 228, 269, 268
23, 23, 24, 65, 64, 228, 229, 270, 269
24, 24, 25, 66, 65, 229, 230, 271, 270
25, 25, 26, 67, 66, 230, 231, 272, 271
26, 26, 27, 68, 67, 231, 232, 273, 272
27, 27, 28, 69, 68, 232, 233, 274, 273
28, 28, 29, 70, 69, 233, 234, 275, 274
29, 29, 30, 71, 70, 234, 235, 276, 275
30, 30, 31, 72, 71, 235, 236, 277, 276
31, 31, 32, 73, 72, 236, 237, 278, 277
32, 32, 33, 74, 73, 237, 238, 279, 278
33, 33, 34, 75, 74, 238, 239, 280, 279
34, 34, 35, 76, 75, 239, 240, 281, 280
35, 35, 36, 77, 76, 240, 241, 282, 281
36, 36, 37, 78, 77, 241, 242, 283, 282
37, 37, 38, 79, 78, 242, 243, 284, 283
38, 38, 39, 80, 79, 243, 244, 285, 284
39, 39, 40, 81, 80, 244, 245, 286, 285
40, 40, 41, 82, 81, 245, 246, 287, 286
41, 42, 43, 84, 83, 247, 248, 289, 288
42, 43, 44, 85, 84, 248, 249, 290, 289
43, 44, 45, 86, 85, 249, 250, 291, 290
44, 45, 46, 87, 86, 250, 251, 292, 291
45, 46, 47, 88, 87, 251, 252, 293, 292
46, 47, 48, 89, 88, 252, 253, 294, 293
47, 48, 49, 90, 89, 253, 254, 295, 294
48, 49, 50, 91, 90, 254, 255, 296, 295
49, 50, 51, 92, 91, 255, 256, 297, 296
50, 51, 52, 93, 92, 256, 257, 298, 297
51, 52, 53, 94, 93, 257, 258, 299, 298
52, 53, 54, 95, 94, 258, 259, 300, 299
53, 54, 55, 96, 95, 259, 260, 301, 300
54, 55, 56, 97, 96, 260, 261, 302, 301
55, 56, 57, 98, 97, 261, 262, 303, 302
56, 57, 58, 99, 98, 262, 263, 304, 303
57, 58, 59, 100, 99, 263, 264, 305, 304
58, 59, 60, 101, 100, 264, 265, 306, 305
59, 60, 61, 102, 101, 265, 266, 307, 306
60, 61, 62, 103, 102, 266, 267, 308, 307
61, 62, 63, 104, 103, 267, 268, 309, 308
62, 63, 64, 105, 104, 268, 269, 310, 309
63, 64, 65, 106, 105, 269, 270, 311, 310
64, 65, 66, 107, 106, 270, 271, 312, 311
65, 66, 67, 108, 107, 271, 272, 313, 312
66, 67, 68, 109, 108, 272, 273, 314, 313
67, 68, 69, 110, 109, 273, 274, 315, 314
68, 69, 70, 111, 110, 274, 275, 316, 315
69, 70, 71, 112, 111, 275, 276, 317, 316
70, 71, 72, 113, 112, 276, 277, 318, 317
71, 72, 73, 114, 113, 277, 278, 319, 318
72, 73, 74, 115, 114, 278, 279, 320, 319
73, 74, 75, 116, 115, 279, 280, 321, 320
74, 75, 76, 117, 116, 280, 281, 322, 321
75, 76, 77, 118, 117, 281, 282, 323, 322
76, 77, 78, 119, 118, 282, 283, 324, 323
77, 78, 79, 120, 119, 283, 284, 325, 324
78, 79, 80, 121, 120, 284, 285, 326, 325
79, 80, 81, 122, 121, 285, 286, 327, 326
80, 81, 82, 123, 122, 286, 287, 328, 327
81, 83, 84, 125, 124, 288, 289, 330, 329
82, 84, 85, 126, 125, 289, 290, 331, 330
83, 85, 86, 127, 126, 290, 291, 332, 331
84, 86, 87, 128, 127, 291, 292, 333, 332
85, 87, 88, 129, 128, 292, 293, 334, 333
86, 88, 89, 130, 129, 293, 294, 335, 334
87, 89, 90, 131, 130, 294, 295, 336, 335
88, 90, 91, 132, 131, 295, 296, 337, 336
89, 91, 92, 133, 132, 296, 297, 338, 337
90, 92, 93, 134, 133, 297, 298, 339, 338
91, 93, 94, 135, 134, 298, 299, 340, 339
92, 94, 95, 136, 135, 299, 300, 341, 340
93, 95, 96, 137, 136, 300, 301, 342, 341
94, 96, 97, 138, 137, 301, 302, 343, 342
95, 97, 98, 139, 138, 302, 303, 344, 343
96, 98, 99, 140, 139, 303, 304, 345, 344
97, 99, 100, 141, 140, 304, 305, 346, 345
98, 100, 101, 142, 141, 305, 306, 347, 346
99, 101, 102, 143, 142, 306, 307, 348, 347
100, 102, 103, 144, 143, 307, 308, 349, 348
101, 103, 104, 145, 144, 308, 309, 350, 349
102, 104, 105, 146, 145, 309, 310, 351, 350
103, 105, 106, 147, 146, 310, 311, 352, 351
104, 106, 107, 148, 147, 311, 312, 353, 352
105, 107, 108, 149, 148, 312, 313, 354, 353
106, 108, 109, 150, 149, 313, 314, 355, 354
107, 109, 110, 151, 150, 314, 315, 356, 355
108, 110, 111, 152, 151, 315, 316, 357, 356
109, 111, 112, 153, 152, 316, 317, 358, 357
110, 112, 113, 154, 153, 317, 318, 359, 358
111, 113, 114, 155, 154, 318, 319, 360, 359
112, 114, 115, 156, 155, 319, 320, 361, 360
113, 115, 116, 157, 156, 320, 321, 362, 361
114, 116, 117, 158, 157, 321, 322, 363, 362
115, 117, 118, 159, 158, 322, 323, 364, 363
116, 118, 119, 160, 159, 323, 324, 365, 364
117, 119, 120, 161, 160, 324, 325, 366, 365
118, 120, 121, 162, 161, 325, 326, 367, 366
119, 121, 122, 163, 162, 326, 327, 368, 367
120, 122, 123, 164, 163, 327, 328, 369, 368
121, 124, 125, 166, 165, 329, 330, 371, 370
122, 125, 126, 167, 166, 330, 331, 372, 371
123, 126, 127, 168, 167, 331, 332, 373, 372
124, 127, 128, 169, 168, 332, 333, 374, 373
125, 128, 129, 170, 169, 333, 334, 375, 374
126, 129, 130, 171, 170, 334, 335, 376, 375
127, 130, 131, 172, 171, 335, 336, 377, 376
128, 131, 132, 173, 172, 336, 337, 378, 377
129, 132, 133, 174, 173, 337, 338, 379, 378
130, 133, 134, 175, 174, 338, 339, 380, 379
131, 134, 135, 176, 175, 339, 340, 381, 380
132, 135, 136, 177, 176, 340, 341, 382, 381
133, 136, 137, 178, 177, 341, 342, 383, 382
134, 137, 138, 179, 178, 342, 343, 384, 383
135, 138, 139, 180, 179, 343, 344, 385, 384
136, 139, 140, 181, 180, 344, 345, 386, 385
137, 140, 141, 182, 181, 345, 346, 387, 386
138, 141, 142, 183, 182, 346, 347, 388, 387
139, 142, 143, 184, 183, 347, 348, 389, 388
140, 143, 144, 185, 184, 348, 349, 390, 389
141, 144, 145, 186, 185, 349, 350, 391, 390
142, 145, 146, 187, 186, 350, 351, 392, 391
143, 146, 147, 188, 187, 351, 352, 393, 392
144, 147, 148, 189, 188, 352, 353, 394, 393
145, 148, 149, 190, 189, 353, 354, 395, 394
146, 149, 150, 191, 190, 354, 355, 396, 395
147, 150, 151, 192, 191, 355, 356, 397, 396
148, 151, 152, 193, 192, 356, 357, 398, 397
149, 152, 153, 194, 193, 357, 358, 399, 398
150, 153, 154, 195, 194, 358, 359, 400, 399
151, 154, 155, 196, 195, 359, 360, 401, 400
152, 155, 156, 197, 196, 360, 361, 402, 401
153, 156, 157, 198, 197, 361, 362, 403, 402
154, 157, 158, 199, 198, 362, 363, 404, 403
155, 158, 159, 200, 199, 363, 364, 405, 404
156, 159, 160, 201, 200, 364, 365, 406, 405
157, 160, 161, 202, 201, 365, 366, 407, 406
158, 161, 162, 203, 202, 366, 367, 408, 407
159, 162, 163, 204, 203, 367, 368, 409, 408
160, 163, 164, 205, 204, 368, 369, 410, 409
161, 206, 207, 248, 247, 411, 412, 453, 452
162, 207, 208, 249, 248, 412, 413, 454, 453
163, 208, 209, 250, 249, 413, 414, 455, 454
164, 209, 210, 251, 250, 414, 415, 456, 455
165, 210, 211, 252, 251, 415, 416, 457, 456
166, 211, 212, 253, 252, 416, 417, 458, 457
167, 212, 213, 254, 253, 417, 418, 459, 458
168, 213, 214, 255, 254, 418, 419, 460, 459
169, 214, 215, 256, 255, 419, 420, 461, 460
170, 215, 216, 257, 256, 420, 421, 462, 461
171, 216, 217, 258, 257, 421, 422, 463, 462
172, 217, 218, 259, 258, 422, 423, 464, 463
173, 218, 219, 260, 259, 423, 424, 465, 464
174, 219, 220, 261, 260, 424, 425, 466, 465
175, 220, 221, 262, 261, 425, 426, 467, 466
176, 221, 222, 263, 262, 426, 427, 468, 467
177, 222, 223, 264, 263, 427, 428, 469, 468
178, 223, 224, 265, 264, 428, 429, 470, 469
179, 224, 225, 266, 265, 429, 430, 471, 470
180, 225, 226, 267, 266, 430, 431, 472, 471
181, 226, 227, 268, 267, 431, 432, 473, 472
182, 227, 228, 269, 268, 432, 433, 474, 473
183, 228, 229, 270, 269, 433, 434, 475, 474
184, 229, 230, 271, 270, 434, 435, 476, 475
185, 230, 231, 272, 271, 435, 436, 477, 476
186, 231, 232, 273, 272, 436, 437, 478, 477
187, 232, 233, 274, 273, 437, 438, 479, 478
188, 233, 234, 275, 274, 438, 439, 480, 479
189, 234, 235, 276, 275, 439, 440, 481, 480
190, 235, 236, 277, 276, 440, 441, 482, 481
191, 236, 237, 278, 277, 441, 442, 483, 482
192, 237, 238, 279, 278, 442, 443, 484, 483
193, 238, 239, 280, 279, 443, 444, 485, 484
194, 239, 240, 281, 280, 444, 445, 486, 485
195, 240, 241, 282, 281, 445, 446, 487, 486
196, 241, 242, 283, 282, 446, 447, 488, 487
197, 242, 243, 284, 283, 447, 448, 489, 488
198, 243, 244, 285, 284, 448, 449, 490, 489
199, 244, 245, 286, 285, 449, 450, 491, 490
200, 245, 246, 287, 286, 450, 451, 492, 491
201, 247, 248, 289, 288, 452, 453, 494, 493
202, 248, 249, 290, 289, 453, 454, 495, 494
203, 249, 250, 291, 290, 454, 455, 496, 495
204, 250, 251, 292, 291, 455, 456, 497, 496
205, 251, 252, 293, 292, 456, 457, 498, 497
206, 252, 253, 294, 293, 457, 458, 499, 498
207, 253, 254, 295, 294, 458, 459, 500, 499
208, 254, 255, 296, 295, 459, 460, 501, 500
209, 255, 256, 297, 296, 460, 461, 502, 501
210, 256, 257, 298, 297, 461, 462, 503, 502
211, 257, 258, 299, 298, 462, 463, 504, 503
212, 258, 259, 300, 299, 463, 464, 505, 504
213, 259, 260, 301, 300, 464, 465, 506, 505
214, 260, 261, 302, 301, 465, 466, 507, 506
215, 261, 262, 303, 302, 466, 467, 508, 507
216, 262, 263, 304, 303, 467, 468, 509, 508
217, 263, 264, 305, 304, 468, 469, 510, 509
218, 264, 265, 306, 305, 469, 470, 511, 510
219, 265, 266, 307, 306, 470, 471, 512, 511
220, 266, 267, 308, 307, 471, 472, 513, 512
221, 267, 268, 309, 308, 472, 473, 514, 513
222, 268, 269, 310, 309, 473, 474, 515, 514
223, 269, 270, 311, 310, 474, 475, 516, 515
224, 270, 271, 312, 311, 475, 476, 517, 516
225, 271, 272, 313, 312, 476, 477, 518, 517
226, 272, 273, 314, 313, 477, 478, 519, 518
227, 273, 274, 315, 314, 478, 479, 520, 519
228, 274, 275, 316, 315, 479, 480, 521, 520
229, 275, 276, 317, 316, 480, 481, 522, 521
230, 276, 277, 318, 317, 481, 482, 523, 522
231, 277, 278, 319, 318, 482, 483, 524, 523
232, 278, 279, 320, 319, 483, 484, 525, 524
233, 279, 280, 321, 320, 484, 485, 526, 525
234, 280, 281, 322, 321, 485, 486, 527, 526
235, 281, 282, 323, 322, 486, 487, 528, 527
236, 282, 283, 324, 323, 487, 488, 529, 528
237, 283, 284, 325, 324, 488, 489, 530, 529
238, 284, 285, 326, 325, 489, 490, 531, 530
239, 285, 286, 327, 326, 490, 491, 532, 531
240, 286, 287, 328, 327, 491, 492, 533, 532
241, 288, 289, 330, 329, 493, 494, 535, 534
242, 289, 290, 331, 330, 494, 495, 536, 535
243, 290, 291, 332, 331, 495, 496, 537, 536
244, 291, 292, 333, 332, 496, 497, 538, 537
245, 292, 293, 334, 333, 497, 498, 539, 538
246, 293, 294, 335, 334, 498, 499, 540, 539
247, 294, 295, 336, 335, 499, 500, 541, 540
248, 295, 296, 337, 336, 500, 501, 542, 541
249, 296, 297, 338, 337, 501, 502, 543, 542
250, 297, 298, 339, 338, 502, 503, 544, 543
251, 298, 299, 340, 339, 503, 504, 545, 544
252, 299, 300, 341, 340, 504, 505, 546, 545
253, 300, 301, 342, 341, 505, 506, 547, 546
254, 301, 302, 343, 342, 506, 507, 548, 547
255, 302, 303, 344, 343, 507, 508, 549, 548
256, 303, 304, 345, 344, 508, 509, 550, 549
257, 304, 305, 346, 345, 509, 510, 551, 550
258, 305, 306, 347, 346, 510, 511, 552, 551
259, 306, 307, 348, 347, 511, 512, 553, 552
260, 307, 308, 349, 348, 512, 513, 554, 553
261, 308, 309, 350, 349, 513, 514, 555, 554
262, 309, 310, 351, 350, 514, 515, 556, 555
263, 310, 311, 352, 351, 515, 516, 557, 556
264, 311, 312, 353, 352, 516, 517, 558, 557
265, 312, 313, 354, 353, 517, 518, 559, 558
266, 313, 314, 355, 354, 518, 519, 560, 559
267, 314, 315, 356, 355, 519, 520, 561, 560
268, 315, 316, 357, 356, 520, 521, 562, 561
269, 316, 317, 358, 357, 521, 522, 563, 562
270, 317, 318, 359, 358, 522, 523, 564, 563
271, 318, 319, 360, 359, 523, 524, 565, 564
272, 319, 320, 361, 360, 524, 525, 566, 565
273, 320, 321, 362, 361, 525, 526, 567, 566
274, 321, 322, 363, 362, 526, 527, 568, 567
275, 322, 323, 364, 363, 527, 528, 569, 568
276, 323, 324, 365, 364, 528, 529, 570, 569
277, 324, 325, 366, 365, 529, 530, 571, 570
278, 325, 326, 367, 366, 530, 531, 572, 571
279, 326, 327, 368, 367, 531, 532, 573, 572
280, 327, 328, 369, 368, 532, 533, 574, 573
281, 329, 330, 371, 370, 534, 535, 576, 575
282, 330, 331, 372, 371, 535, 536, 577, 576
283, 331, 332, 373, 372, 536, 537, 578, 577
284, 332, 333, 374, 373, 537, 538, 579, 578
285, 333, 334, 375, 374, 538, 539, 580, 579
286, 334, 335, 376, 375, 539, 540, 581, 580
287, 335, 336, 377, 376, 540, 541, 582, 581
288, 336, 337, 378, 377, 541, 542, 583, 582
289, 337, 338, 379, 378, 542, 543, 584, 583
290, 338, 339, 380, 379, 543, 544, 585, 584
291, 339, 340, 381, 380, 544, 545, 586, 585
292, 340, 341, 382, 381, 545, 546, 587, 586
293, 341, 342, 383, 382, 546, 547, 588, 587
294, 342, 343, 384, 383, 547, 548, 589, 588
295, 343, 344, 385, 384, 548, 549, 590, 589
296, 344, 345, 386, 385, 549, 550, 591, 590
297, 345, 346, 387, 386, 550, 551, 592, 591
298, 346, 347, 388, 387, 551, 552, 593, 592
299, 347, 348, 389, 388, 552, 553, 594, 593
300, 348, 349, 390, 389, 553, 554, 595, 594
301, 349, 350, 391, 390, 554, 555, 596, 595
302, 350, 351, 392, 391, 555, 556, 597, 596
303, 351, 352, 393, 392, 556, 557, 598, 597
304, 352, 353, 394, 393, 557, 558, 599, 598
305, 353, 354, 395, 394, 558, 559, 600, 599
306, 354, 355, 396, 395, 559, 560, 601, 600
307, 355, 356, 397, 396, 560, 561, 602, 601
308, 356, 357, 398, 397, 561, 562, 603, 602
309, 357, 358, 399, 398, 562, 563, 604, 603
310, 358, 359, 400, 399, 563, 564, 605, 604
311, 359, 360, 401, 400, 564, 565, 606, 605
312, 360, 361, 402, 401, 565, 566, 607, 606
313, 361, 362, 403, 402, 566, 567, 608, 607
314, 362, 363, 404, 403, 567, 568, 609, 608
315, 363, 364, 405, 404, 568, 569, 610, 609
316, 364, 365, 406, 405, 569, 570, 611, 610
317, 365, 366, 407, 406, 570, 571, 612, 611
318, 366, 367, 408, 407, 571, 572, 613, 612
319, 367, 368, 409, 408, 572, 573, 614, 613
320, 368, 369, 410, 409, 573, 574, 615, 614
321, 411, 412, 453, 452, 616, 617, 658, 657
322, 412, 413, 454, 453, 617, 618, 659, 658
323, 413, 414, 455, 454, 618, 619, 660, 659
324, 414, 415, 456, 455, 619, 620, 661, 660
325, 415, 416, 457, 456, 620, 621, 662, 661
326, 416, 417, 458, 457, 621, 622, 663, 662
327, 417, 418, 459, 458, 622, 623, 664, 663
328, 418, 419, 460, 459, 623, 624, 665, 664
329, 419, 420, 461, 460, 624, 625, 666, 665
330, 420, 421, 462, 461, 625, 626, 667, 666
331, 421, 422, 463, 462, 626, 627, 668, 667
332, 422, 423, 464, 463, 627, 628, 669, 668
333, 423, 424, 465, 464, 628, 629, 670, 669
334, 424, 425, 466, 465, 629, 630, 671, 670
335, 425, 426, 467, 466, 630, 631, 672, 671
336, 426, 427, 468, 467, 631, 632, 673, 672
337, 427, 428, 469, 468, 632, 633, 674, 673
338, 428, 429, 470, 469, 633, 634, 675, 674
339, 429, 430, 471, 470, 634, 635, 676, 675
340, 430, 431, 472, 471, 635, 636, 677, 676
341, 431, 432, 473, 472, 636, 637, 678, 677
342, 432, 433, 474, 473, 637, 638, 679, 678
343, 433, 434, 475, 474, 638, 639, 680, 679
344, 434, 435, 476, 475, 639, 640, 681, 680
345, 435, 436, 477, 476, 640, 641, 682, 681
346, 436, 437, 478, 477, 641, 642, 683, 682
347, 437, 438, 479, 478, 642, 643, 684, 683
348, 438, 439, 480, 479, 643, 644, 685, 684
349, 439, 440, 481, 480, 644, 645, 686, 685
350, 440, 441, 482, 481, 645, 646, 687, 686
351, 441, 442, 483, 482, 646, 647, 688, 687
352, 442, 443, 484, 483, 647, 648, 689, 688
353, 443, 444, 485, 484, 648, 649, 690, 689
354, 444, 445, 486, 485, 649, 650, 691, 690
355, 445, 446, 487, 486, 650, 651, 692, 691
356, 446, 447, 488, 487, 651, 652, 693, 692
357, 447, 448, 489, 488, 652, 653, 694, 693
358, 448, 449, 490, 489, 653, 654, 695, 694
359, 449, 450, 491, 490, 654, 655, 696, 695
360, 450, 451, 492, 491, 655, 656, 697, 696
361, 452, 453, 494, 493, 657, 658, 699, 698
362, 453, 454, 495, 494, 658, 659, 700, 699
363, 454, 455, 496, 495, 659, 660, 701, 700
364, 455, 456, 497, 496, 660, 661, 702, 701
365, 456, 457, 498, 497, 661, 662, 703, 702
366, 457, 458, 499, 498, 662, 663, 704, 703
367, 458, 459, 500, 499, 663, 664, 705, 704
368, 459, 460, 501, 500, 664, 665, 706, 705
369, 460, 461, 502, 501, 665, 666, 707, 706
370, 461, 462, 503, 502, 666, 667, 708, 707
371, 462, 463, 504, 503, 667, 668, 709, 708
372, 463, 464, 505, 504, 668, 669, 710, 709
373, 464, 465, 506, 505, 669, 670, 711, 710
374, 465, 466, 507, 506, 670, 671, 712, 711
375, 466, 467, 508, 507, 671, 672, 713, 712
376, 467, 468, 509, 508, 672, 673, 714, 713
377, 468, 469, 510, 509, 673, 674, 715, 714
378, 469, 470, 511, 510, 674, 675, 716, 715
379, 470, 471, 512, 511, 675, 676, 717, 716
380, 471, 472, 513, 512, 676, 677, 718, 717
381, 472, 473, 514, 513, 677, 678, 719, 718
382, 473, 474, 515, 514, 678, 679, 720, 719
383, 474, 475, 516, 515, 679, 680, 721, 720
384, 475, 476, 517, 516, 680, 681, 722, 721
385, 476, 477, 518, 517, 681, 682, 723, 722
386, 477, 478, 519, 518, 682, 683, 724, 723
387, 478, 479, 520, 519, 683, 684, 725, 724
388, 479, 480, 521, 520, 684, 685, 726, 725
389, 480, 481, 522, 521, 685, 686, 727, 726
390, 481, 482, 523, 522, 686, 687, 728, 727
391, 482, 483, 524, 523, 687, 688, 729, 728
392, 483, 484, 525, 524, 688, 689, 730, 729
393, 484, 485, 526, 525, 689, 690, 731, 730
394, 485, 486, 527, 526, 690, 691, 732, 731
395, 486, 487, 528, 527, 691, 692, 733, 732
396, 487, 488, 529, 528, 692, 693, 734, 733
397, 488, 489, 530, 529, 693, 694, 735, 734
398, 489, 490, 531, 530, 694, 695, 736, 735
399, 490, 491, 532, 531, 695, 696, 737, 736
400, 491, 492, 533, 532, 696, 697, 738, 737
401, 493, 494, 535, 534, 698, 699, 740, 739
402, 494, 495, 536, 535, 699, 700, 741, 740
403, 495, 496, 537, 536, 700, 701, 742, 741
404, 496, 497, 538, 537, 701, 702, 743, 742
405, 497, 498, 539, 538, 702, 703, 744, 743
406, 498, 499, 540, 539, 703, 704, 745, 744
407, 499, 500, 541, 540, 704, 705, 746, 745
408, 500, 501, 542, 541, 705, 706, 747, 746
409, 501, 502, 543, 542, 706, 707, 748, 747
410, 502, 503, 544, 543, 707, 708, 749, 748
411, 503, 504, 545, 544, 708, 709, 750, 749
412, 504, 505, 546, 545, 709, 710, 751, 750
413, 505, 506, 547, 546, 710, 711, 752, 751
414, 506, 507, 548, 547, 711, 712, 753, 752
415, 507, 508, 549, 548, 712, 713, 754, 753
416, 508, 509, 550, 549, 713, 714, 755, 754
417, 509, 510, 551, 550, 714, 715, 756, 755
418, 510, 511, 552, 551, 715, 716, 757, 756
419, 511, 512, 553, 552, 716, 717, 758, 757
420, 512, 513, 554, 553, 717, 718, 759, 758
421, 513, 514, 555, 554, 718, 719, 760, 759
422, 514, 515, 556, 555, 719, 720, 761, 760
423, 515, 516, 557, 556, 720, 721, 762, 761
424, 516, 517, 558, 557, 721, 722, 763, 762
425, 517, 518, 559, 558, 722, 723, 764, 763
426, 518, 519, 560, 559, 723, 724, 765, 764
427, 519, 520, 561, 560, 724, 725, 766, 765
428, 520, 521, 562, 561, 725, 726, 767, 766
429, 521, 522, 563, 562, 726, 727, 768, 767
430, 522, 523, 564, 563, 727, 728, 769, 768
431, 523, 524, 565, 564, 728, 729, 770, 769
432, 524, 525, 566, 565, 729, 730, 771, 770
433, 525, 526, 567, 566, 730, 731, 772, 771
434, 526, 527, 568, 567, 731, 732, 773, 772
435, 527, 528, 569, 568, 732, 733, 774, 773
436, 528, 529, 570, 569, 733, 734, 775, 774
437, 529, 530, 571, 570, 734, 735, 776, 775
438, 530, 531, 572, 571, 735, 736, 777, 776
439, 531, 532, 573, 572, 736, 737, 778, 777
440, 532, 533, 574, 573, 737, 738, 779, 778
441, 534, 535, 576, 575, 739, 740, 781, 780
442, 535, 536, 577, 576, 740, 741, 782, 781
443, 536, 537, 578, 577, 741, 742, 783, 782
444, 537, 538, 579, 578, 742, 743, 784, 783
445, 538, 539, 580, 579, 743, 744, 785, 784
446, 539, 540, 581, 580, 744, 745, 786, 785
447, 540, 541, 582, 581, 745, 746, 787, 786
448, 541, 542, 583, 582, 746, 747, 788, 787
449, 542, 543, 584, 583, 747, 748, 789, 788
450, 543, 544, 585, 584, 748, 749, 790, 789
451, 544, 545, 586, 585, 749, 750, 791, 790
452, 545, 546, 587, 586, 750, 751, 792, 791
453, 546, 547, 588, 587, 751, 752, 793, 792
454, 547, 548, 589, 588, 752, 753, 794, 793
455, 548, 549, 590, 589, 753, 754, 795, 794
456, 549, 550, 591, 590, 754, 755, 796, 795
457, 550, 551, 592, 591, 755, 756, 797, 796
458, 551, 552, 593, 592, 756, 757, 798, 797
459, 552, 553, 594, 593, 757, 758, 799, 798
460, 553, 554, 595, 594, 758, 759, 800, 799
461, 554, 555, 596, 595, 759, 760, 801, 800
462, 555, 556, 597, 596, 760, 761, 802, 801
463, 556, 557, 598, 597, 761, 762, 803, 802
464, 557, 558, 599, 598, 762, 763, 804, 803
465, 558, 559, 600, 599, 763, 764, 805, 804
466, 559, 560, 601, 600, 764, 765, 806, 805
467, 560, 561, 602, 601, 765, 766, 807, 806
468, 561, 562, 603, 602, 766, 767, 808, 807
469, 562, 563, 604, 603, 767, 768, 809, 808
470, 563, 564, 605, 604, 768, 769, 810, 809
471, 564, 565, 606, 605, 769, 770, 811, 810
472, 565, 566, 607, 606, 770, 771, 812, 811
473, 566, 567, 608, 607, 771, 772, 813, 812
474, 567, 568, 609, 608, 772, 773, 814, 813
475, 568, 569, 610, 609, 773, 774, 815, 814
476, 569, 570, 611, 610, 774, 775, 816, 815
477, 570, 571, 612, 611, 775, 776, 817, 816
478, 571, 572, 613, 612, 776, 777, 818, 817
479, 572, 573, 614, 613, 777, 778, 819, 818
480, 573, 574, 615, 614, 778, 779, 820, 819
481, 616, 617, 658, 657, 821, 822, 863, 862
482, 617, 618, 659, 658, 822, 823, 864, 863
483, 618, 619, 660, 659, 823, 824, 865, 864
484, 619, 620, 661, 660, 824, 825, 866, 865
485, 620, 621, 662, 661, 825, 826, 867, 866
486, 621, 622, 663, 662, 826, 827, 868, 867
487, 622, 623, 664, 663, 827, 828, 869, 868
488, 623, 624, 665, 664, 828, 829, 870, 869
489, 624, 625, 666, 665, 829, 830, 871, 870
490, 625, 626, 667, 666, 830, 831, 872, 871
491, 626, 627, 668, 667, 831, 832, 873, 872
492, 627, 628, 669, 668, 832, 833, 874, 873
493, 628, 629, 670, 669, 833, 834, 875, 874
494, 629, 630, 671, 670, 834, 835, 876, 875
495, 630, 631, 672, 671, 835, 836, 877, 876
496, 631, 632, 673, 672, 836, 837, 878, 877
497, 632, 633, 674, 673, 837, 838, 879, 878
498, 633, 634, 675, 674, 838, 839, 880, 879
499, 634, 635, 676, 675, 839, 840, 881, 880
500, 635, 636, 677, 676, 840, 841, 882, 881
501, 636, 637, 678, 677, 841, 842, 883, 882
502, 637, 638, 679, 678, 842, 843, 884, 883
503, 638, 639, 680, 679, 843, 844, 885, 884
504, 639, 640, 681, 680, 844, 845, 886, 885
505, 640, 641, 682, 681, 845, 846, 887, 886
506, 641, 642, 683, 682, 846, 847, 888, 887
507, 642, 643, 684, 683, 847, 848, 889, 888
508, 643, 644, 685, 684, 848, 849, 890, 889
509, 644, 645, 686, 685, 849, 850, 891, 890
510, 645, 646, 687, 686, 850, 851, 892, 891
511, 646, 647, 688, 687, 851, 852, 893, 892
512, 647, 648, 689, 688, 852, 853, 894, 893
513, 648, 649, 690, 689, 853, 854, 895, 894
514, 649, 650, 691, 690, 854, 855, 896, 895
515, 650, 651, 692, 691, 855, 856, 897, 896
516, 651, 652, 693, 692, 856, 857, 898, 897
517, 652, 653, 694, 693, 857, 858, 899, 898
518, 653, 654, 695, 694, 858, 859, 900, 899
519, 654, 655, 696, 695, 859, 860, 901, 900
520, 655, 656, 697, 696, 860, 861, 902, 901
521, 657, 658, 699, 698, 862, 863, 904, 903
522, 658, 659, 700, 699, 863, 864, 905, 904
523, 659, 660, 701, 700, 864, 865, 906, 905
524, 660, 661, 702, 701, 865, 866, 907, 906
525, 661, 662, 703, 702, 866, 867, 908, 907
526, 662, 663, 704, 703, 867, 868, 909, 908
527, 663, 664, 705, 704, 868, 869, 910, 909
528, 664, 665, 706, 705, 869, 870, 911, 910
529, 665, 666, 707, 706, 870, 871, 912, 911
530, 666, 667, 708, 707, 871, 872, 913, 912
531, 667, 668, 709, 708, 872, 873, 914, 913
532, 668, 669, 710, 709, 873, 874, 915, 914
533, 669, 670, 711, 710, 874, 875, 916, 915
534, 670, 671, 712, 711, 875, 876, 917, 916
535, 671, 672, 713, 712, 876, 877, 918, 917
536, 672, 673, 714, 713, 877, 878, 919, 918
537, 673, 674, 715, 714, 878, 879, 920, 919
538, 674, 675, 716, 715, 879, 880, 921, 920
539, 675, 676, 717, 716, 880, 881, 922, 921
540, 676, 677, 718, 717, 881, 882, 923, 922
541, 677, 678, 719, 718, 882, 883, 924, 923
542, 678, 679, 720, 719, 883, 884, 925, 924
543, 679, 680, 721, 720, 884, 885, 926, 925
544, 680, 681, 722, 721, 885, 886, 927, 926
545, 681, 682, 723, 722, 886, 887, 928, 927
546, 682, 683, 724, 723, 887, 888, 929, 928
547, 683, 684, 725, 724, 888, 889, 930, 929
548, 684, 685, 726, 725, 889, 890, 931, 930
549, 685, 686, 727, 726, 890, 891, 932, 931
550, 686, 687, 728, 727, 891, 892, 933, 932
551, 687, 688, 729, 728, 892, 893, 934, 933
552, 688, 689, 730, 729, 893, 894, 935, 934
553, 689, 690, 731, 730, 894, 895, 936, 935
554, 690, 691, 732, 731, 895, 896, 937, 936
555, 691, 692, 733, 732, 896, 897, 938, 937
556, 692, 693, 734, 733, 897, 898, 939, 938
557, 693, 694, 735, 734, 898, 899, 940, 939
558, 694, 695, 736, 735, 899, 900, 941, 940
559, 695, 696, 737, 736, 900, 901, 942, 941
560, 696, 697, 738, 737, 901, 902, 943, 942
561, 698, 699, 740, 739, 903, 904, 945, 944
562, 699, 700, 741, 740, 904, 905, 946, 945
563, 700, 701, 742, 741, 905, 906, 947, 946
564, 701, 702, 743, 742, 906, 907, 948, 947
565, 702, 703, 744, 743, 907, 908, 949, 948
566, 703, 704, 745, 744, 908, 909, 950, 949
567, 704, 705, 746, 745, 909, 910, 951, 950
568, 705, 706, 747, 746, 910, 911, 952, 951
569, 706, 707, 748, 747, 911, 912, 953, 952
570, 707, 708, 749, 748, 912, 913, 954, 953
571, 708, 709, 750, 749, 913, 914, 955, 954
572, 709, 710, 751, 750, 914, 915, 956, 955
573, 710, 711, 752, 751, 915, 916, 957, 956
574, 711, 712, 753, 752, 916, 917, 958, 957
575, 712, 713, 754, 753, 917, 918, 959, 958
576, 713, 714, 755, 754, 918, 919, 960, 959
577, 714, 715, 756, 755, 919, 920, 961, 960
578, 715, 716, 757, 756, 920, 921, 962, 961
579, 716, 717, 758, 757, 921, 922, 963, 962
580, 717, 718, 759, 758, 922, 923, 964, 963
581, 718, 719, 760, 759, 923, 924, 965, 964
582, 719, 720, 761, 760, 924, 925, 966, 965
583, 720, 721, 762, 761, 925, 926, 967, 966
584, 721, 722, 763, 762, 926, 927, 968, 967
585, 722, 723, 764, 763, 927, 928, 969, 968
586, 723, 724, 765, 764, 928, 929, 970, 969
587, 724, 725, 766, 765, 929, 930, 971, 970
588, 725, 726, 767, 766, 930, 931, 972, 971
589, 726, 727, 768, 767, 931, 932, 973, 972
590, 727, 728, 769, 768, 932, 933, 974, 973
591, 728, 729, 770, 769, 933, 934, 975, 974
592, 729, 730, 771, 770, 934, 935, 976, 975
593, 730, 731, 772, 771, 935, 936, 977, 976
594, 731, 732, 773, 772, 936, 937, 978, 977
595, 732, 733, 774, 773, 937, 938, 979, 978
596, 733, 734, 775, 774, 938, 939, 980, 979
597, 734, 735, 776, 775, 939, 940, 981, 980
598, 735, 736, 777, 776, 940, 941, 982, 981
599, 736, 737, 778, 777, 941, 942, 983, 982
600, 737, 738, 779, 778, 942, 943, 984, 983
601, 739, 740, 781, 780, 944, 945, 986, 985
602, 740, 741, 782, 781, 945, 946, 987, 986
603, 741, 742, 783, 782, 946, 947, 988, 987
604, 742, 743, 784, 783, 947, 948, 989, 988
605, 743, 744, 785, 784, 948, 949, 990, 989
606, 744, 745, 786, 785, 949, 950, 991, 990
607, 745, 746, 787, 786, 950, 951, 992, 991
608, 746, 747, 788, 787, 951, 952, 993, 992
609, 747, 748, 789, 788, 952, 953, 994, 993
610, 748, 749, 790, 789, 953, 954, 995, 994
611, 749, 750, 791, 790, 954, 955, 996, 995
612, 750, 751, 792, 791, 955, 956, 997, 996
613, 751, 752, 793, 792, 956, 957, 998, 997
614, 752, 753, 794, 793, 957, 958, 999, 998
615, 753, 754, 795, 794, 958, 959, 1000, 999
616, 754, 755, 796, 795, 959, 960, 1001, 1000
617, 755, 756, 797, 796, 960, 961, 1002, 1001
618, 756, 757, 798, 797, 961, 962, 1003, 1002
619, 757, 758, 799, 798, 962, 963, 1004, 1003
620, 758, 759, 800, 799, 963, 964, 1005, 1004
621, 759, 760, 801, 800, 964, 965, 1006, 1005
622, 760, 761, 802, 801, 965, 966, 1007, 1006
623, 761, 762, 803, 802, 966, 967, 1008, 1007
624, 762, 763, 804, 803, 967, 968, 1009, 1008
625, 763, 764, 805, 804, 968, 969, 1010, 1009
626, 764, 765, 806, 805, 969, 970, 1011, 1010
627, 765, 766, 807, 806, 970, 971, 1012, 1011
628, 766, 767, 808, 807, 971, 972, 1013, 1012
629, 767, 768, 809, 808, 972, 973, 1014, 1013
630, 768, 769, 810, 809, 973, 974, 1015, 1014
631, 769, 770, 811, 810, 974, 975, 1016, 1015
632, 770, 771, 812, 811, 975, 976, 1017, 1016
633, 771, 772, 813, 812, 976, 977, 1018, 1017
634, 772, 773, 814, 813, 977, 978, 1019, 1018
635, 773, 774, 815, 814, 978, 979, 1020, 1019
636, 774, 775, 816, 815, 979, 980, 1021, 1020
637, 775, 776, 817, 816, 980, 981, 1022, 1021
638, 776, 777, 818, 817, 981, 982, 1023, 1022
639, 777, 778, 819, 818, 982, 983, 1024, 1023
640, 778, 779, 820, 819, 983, 984, 1025, 1024
*NSET, NSET=FIXED
1, 42, 83, 124, 165, 206, 247, 288
329, 370, 411, 452, 493, 534, 575, 616
657, 698, 739, 780, 821, 862, 903, 944
985
*NSET, NSET=TIP
41, 82, 123, 164, 205, 246, 287, 328
369, 410, 451, 492, 533, 574, 615, 656
697, 738, 779, 820, 861, 902, 943, 984
1025
*MATERIAL, NAME=STEEL
*ELASTIC
210000., 0.3
*DENSITY
7.85e-9
*SOLID SECTION, ELSET=EALL, MATERIAL=STEEL
*BOUNDARY
FIXED, 11, 11, 20.
*STEP
*HEAT TRANSFER, STEADY STATE
1., 1.
*CFLUX
TIP, 11, 2.
*NODE FILE
NT
*END STEP
